! Created with skrf 2.0.0 (http://scikit-rf.org).
# Hz S RI R 50.0 
!freq ReS11 ImS11
!
100000000.0 0.9762076122761396 -0.21329738908775442
150000000.0 0.9454739173773893 -0.31564100203726614
200000000.0 0.9073000780091149 -0.41630635366945007
250000000.0 0.8563473994372596 -0.5098822524491087
300000000.0 0.7963080709078613 -0.6003056269767729
350000000.0 0.7277208966270414 -0.6811436051079273
400000000.0 0.6489068087275485 -0.7558694859400251
450000000.0 0.5640883354094507 -0.8210931431757699
500000000.0 0.47109684030986054 -0.8758358889971006
550000000.0 0.37486692219634243 -0.9226393992868154
600000000.0 0.272048533594583 -0.9546167431514924
650000000.0 0.16782269103922764 -0.979999533325592
700000000.0 0.06109675863873687 -0.9882423785385974
750000000.0 -0.046846208802556244 -0.9907409116537038
800000000.0 -0.15216215105930414 -0.9761249161269537
850000000.0 -0.2575466740205437 -0.955484333817407
900000000.0 -0.35750397101663384 -0.9185481645800939
950000000.0 -0.4561955745307811 -0.8743357109204654
1000000000.0 -0.5456992484538945 -0.8193721638287192
1050000000.0 -0.6315623225581655 -0.7532538901895689
1100000000.0 -0.7079911912167245 -0.6813547927436037
1150000000.0 -0.7764283861717665 -0.5981344004754151
1200000000.0 -0.8368893351646391 -0.5118356881534352
1250000000.0 -0.8843140176263377 -0.4151615144160014
1300000000.0 -0.9253063046793437 -0.3186334626801963
1350000000.0 -0.9504449748112478 -0.21439250924204026
1400000000.0 -0.9696512286655329 -0.11009931367898367
1450000000.0 -0.971552889758202 -0.0047590401632378945
1500000000.0 -0.9680061310066489 0.100542964535967
1550000000.0 -0.9476715402080195 0.20462265842230268
1600000000.0 -0.9189023571985886 0.30682017787040083
1650000000.0 -0.8793696926796969 0.4028920623456102
1700000000.0 -0.8284162208953392 0.4959844691289254
1750000000.0 -0.7706217202897538 0.5816694100151102
1800000000.0 -0.6993712637748352 0.6599473802040292
1850000000.0 -0.6257933947890513 0.7322662398522107
1900000000.0 -0.5404538574467603 0.7933563725767501
1950000000.0 -0.45180302012676155 0.8480630079161047
2000000000.0 -0.3563320261032093 0.8883536140923769
2050000000.0 -0.2593735829949504 0.9228363211704862
2100000000.0 -0.15774361800293962 0.9421334195605932
2150000000.0 -0.054897739461844945 0.9545575917388098
2200000000.0 0.04717160450128567 0.9522401933960204
2250000000.0 0.1514879153857046 0.9409201976084536
2300000000.0 0.24973760313203902 0.9194435223645437
2350000000.0 0.3473991686506616 0.8861989945006817
2400000000.0 0.43938152670832553 0.8436565173684882
2450000000.0 0.5279638530148043 0.7892250384417763
2500000000.0 0.6105596620593615 0.7289576014529257
2550000000.0 0.6827553760083697 0.6574414512921039
2600000000.0 0.7488522671052692 0.5822784994476599
2650000000.0 0.8045531162593654 0.49526794825589104
2700000000.0 0.8535641854045207 0.40895896735499054
2750000000.0 0.8906235646600237 0.3153413252121591
2800000000.0 0.9218554359563467 0.2202370342468762
2850000000.0 0.9364732795976949 0.12088391363674404
2900000000.0 0.9467461350107271 0.017898271552508234
2950000000.0 0.9426075242583677 -0.08205863214209573
3000000000.0 0.9281396807959582 -0.18397260724894038
3050000000.0 0.9039595588988912 -0.281034795793275
3100000000.0 0.8673482007619651 -0.37638565870916096
3150000000.0 0.8241490620690243 -0.46673907802508
3200000000.0 0.766948575783543 -0.551762405005014
3250000000.0 0.7061383338398601 -0.6313080158058223
3300000000.0 0.6327196999465313 -0.7014976543298781
3350000000.0 0.5560384221991416 -0.7664309239039938
3400000000.0 0.46849545010918087 -0.8217018349762366
3450000000.0 0.3830138361452046 -0.8669164717132464
3500000000.0 0.2855938115295805 -0.9013195402007632
3550000000.0 0.186933262208228 -0.9275231720026494
3600000000.0 0.08852625490324052 -0.941628879367952
3650000000.0 -0.014390337493054331 -0.9455442347950468
3700000000.0 -0.11333351315341297 -0.9394684950084948
3750000000.0 -0.21429393134636646 -0.9209760646480617
3800000000.0 -0.3102519052476926 -0.8947233918622939
3850000000.0 -0.40465617311000157 -0.8539377781660439
3900000000.0 -0.49044796756728604 -0.8098117117528875
3950000000.0 -0.5765655553788074 -0.7486485916663262
4000000000.0 -0.6534635580527072 -0.6852751134427615
4050000000.0 -0.7220914295802345 -0.6095041068593764
4100000000.0 -0.7841197517966019 -0.5305888035359875
4150000000.0 -0.8349881536827397 -0.44283408051797507
4200000000.0 -0.8783153330432552 -0.3510022088131619
4250000000.0 -0.9098180807788123 -0.25586696450871965
4300000000.0 -0.9322179332359375 -0.15559772814988385
4350000000.0 -0.9435538480569515 -0.05719008565731082
4400000000.0 -0.9437488486461131 0.04566027437327539
4450000000.0 -0.9343598208175584 0.1446870664982138
4500000000.0 -0.9131246708617815 0.2435162824290852
4550000000.0 -0.8817645970204233 0.3402333762919416
4600000000.0 -0.838590760519078 0.432123161572168
4650000000.0 -0.7900070092128528 0.5186014470294993
4700000000.0 -0.7278279850529052 0.5997631399911537
4750000000.0 -0.6625948915645221 0.6734121367807191
4800000000.0 -0.5842412681294633 0.739716526631957
4850000000.0 -0.501484101056065 0.7987959692554483
4900000000.0 -0.41453274306647003 0.8461419100377484
4950000000.0 -0.31974227253950294 0.8862468065403488
5000000000.0 -0.22525510960101355 0.9148773769034135
5050000000.0 -0.12454771566336124 0.9324996397613581
5100000000.0 -0.026205016109562582 0.9408682474007499
5150000000.0 0.07563999199178612 0.9364935280836509
5200000000.0 0.17439474654448162 0.92361027810664
5250000000.0 0.2713206873084074 0.8974951080933737
5300000000.0 0.36447353364731294 0.8635903406971694
5350000000.0 0.4519685884119206 0.8179206699060897
5400000000.0 0.5352053716033501 0.7654399258924571
5450000000.0 0.6112339688784533 0.7056113268576385
5500000000.0 0.6834924726269842 0.6395465419106866
5550000000.0 0.7470128682026903 0.564454468678556
5600000000.0 0.8049257692597297 0.4819788094405721
5650000000.0 0.8516698221861356 0.3945487949870359
5700000000.0 0.8903847753217649 0.300975489955717
5750000000.0 0.917673862135186 0.2032090116156618
5800000000.0 0.9333621433682388 0.10403530709517311
5850000000.0 0.9397082060990156 0.005434211450911244
5900000000.0 0.9343969326967151 -0.09625781305731274
5950000000.0 0.919061692459066 -0.1935894700157211
6000000000.0 0.892222124672226 -0.2921796707056668
