! Created with skrf 2.0.0 (http://scikit-rf.org).
# Hz S RI R 50.0 
!freq ReS11 ImS11 ReS21 ImS21 ReS12 ImS12 ReS22 ImS22
100000000.0 0.8629812690065942 -0.21235955157307482 0.8629812690065942 -0.21235955157307482 0.8629812690065942 -0.21235955157307482 0.8629812690065942 -0.21235955157307482
150000000.0 0.8215976240482952 -0.30733922950389664 0.8215976240482952 -0.30733922950389664 0.8215976240482952 -0.30733922950389664 0.8215976240482952 -0.30733922950389664
200000000.0 0.7879078239908699 -0.4103505792501942 0.7879078239908699 -0.4103505792501942 0.7879078239908699 -0.4103505792501942 0.7879078239908699 -0.4103505792501942
250000000.0 0.7274756450097513 -0.4915501777622881 0.7274756450097513 -0.4915501777622881 0.7274756450097513 -0.4915501777622881 0.7274756450097513 -0.4915501777622881
300000000.0 0.6650641237515627 -0.5814337434928913 0.6650641237515627 -0.5814337434928913 0.6650641237515627 -0.5814337434928913 0.6650641237515627 -0.5814337434928913
350000000.0 0.5924032810897045 -0.6469155105362563 0.5924032810897045 -0.6469155105362563 0.5924032810897045 -0.6469155105362563 0.5924032810897045 -0.6469155105362563
400000000.0 0.5028706365213608 -0.715568237971581 0.5028706365213608 -0.715568237971581 0.5028706365213608 -0.715568237971581 0.5028706365213608 -0.715568237971581
450000000.0 0.42215033306015076 -0.7725508101501937 0.42215033306015076 -0.7725508101501937 0.42215033306015076 -0.7725508101501937 0.42215033306015076 -0.7725508101501937
500000000.0 0.3172187498162898 -0.8075598934943617 0.3172187498162898 -0.8075598934943617 0.3172187498162898 -0.8075598934943617 0.3172187498162898 -0.8075598934943617
550000000.0 0.22792512915447533 -0.8475547407414036 0.22792512915447533 -0.8475547407414036 0.22792512915447533 -0.8475547407414036 0.22792512915447533 -0.8475547407414036
600000000.0 0.11827700755678186 -0.853074893837708 0.11827700755678186 -0.853074893837708 0.11827700755678186 -0.853074893837708 0.11827700755678186 -0.853074893837708
650000000.0 0.023977518248241562 -0.8721306351873346 0.023977518248241562 -0.8721306351873346 0.023977518248241562 -0.8721306351873346 0.023977518248241562 -0.8721306351873346
700000000.0 -0.0841164687218601 -0.8507277820270525 -0.0841164687218601 -0.8507277820270525 -0.0841164687218601 -0.8507277820270525 -0.0841164687218601 -0.8507277820270525
750000000.0 -0.18193661679600115 -0.8489647591493192 -0.18193661679600115 -0.8489647591493192 -0.18193661679600115 -0.8489647591493192 -0.18193661679600115 -0.8489647591493192
800000000.0 -0.2780813993346829 -0.803115065566365 -0.2780813993346829 -0.803115065566365 -0.2780813993346829 -0.803115065566365 -0.2780813993346829 -0.803115065566365
850000000.0 -0.3766371761665786 -0.7755351235890067 -0.3766371761665786 -0.7755351235890067 -0.3766371761665786 -0.7755351235890067 -0.3766371761665786 -0.7755351235890067
900000000.0 -0.4579359335372351 -0.7147820656728392 -0.4579359335372351 -0.7147820656728392 -0.4579359335372351 -0.7147820656728392 -0.4579359335372351 -0.7147820656728392
950000000.0 -0.5467312500227354 -0.6536172261538133 -0.5467312500227354 -0.6536172261538133 -0.5467312500227354 -0.6536172261538133 -0.5467312500227354 -0.6536172261538133
1000000000.0 -0.6121499670816797 -0.5880675173481329 -0.6121499670816797 -0.5880675173481329 -0.6121499670816797 -0.5880675173481329 -0.6121499670816797 -0.5880675173481329
1050000000.0 -0.6784378243973959 -0.4967087467411454 -0.6784378243973959 -0.4967087467411454 -0.6784378243973959 -0.4967087467411454 -0.6784378243973959 -0.4967087467411454
1100000000.0 -0.730978984009628 -0.42863548168633975 -0.730978984009628 -0.42863548168633975 -0.730978984009628 -0.42863548168633975 -0.730978984009628 -0.42863548168633975
1150000000.0 -0.7684360479231837 -0.3202209749057193 -0.7684360479231837 -0.3202209749057193 -0.7684360479231837 -0.3202209749057193 -0.7684360479231837 -0.3202209749057193
1200000000.0 -0.8083752588496224 -0.2451713557618585 -0.8083752588496224 -0.2451713557618585 -0.8083752588496224 -0.2451713557618585 -0.8083752588496224 -0.2451713557618585
1250000000.0 -0.8153555613002414 -0.12968819291169675 -0.8153555613002414 -0.12968819291169675 -0.8153555613002414 -0.12968819291169675 -0.8153555613002414 -0.12968819291169675
1300000000.0 -0.8397577938507833 -0.04443593350740142 -0.8397577938507833 -0.04443593350740142 -0.8397577938507833 -0.04443593350740142 -0.8397577938507833 -0.04443593350740142
1350000000.0 -0.8160092446127635 0.06456216825644882 -0.8160092446127635 0.06456216825644882 -0.8160092446127635 0.06456216825644882 -0.8160092446127635 0.06456216825644882
1400000000.0 -0.8214223649461054 0.15443271168310627 -0.8214223649461054 0.15443271168310627 -0.8214223649461054 0.15443271168310627 -0.8214223649461054 0.15443271168310627
1450000000.0 -0.7741320300318931 0.2492524102286425 -0.7741320300318931 0.2492524102286425 -0.7741320300318931 0.2492524102286425 -0.7741320300318931 0.2492524102286425
1500000000.0 -0.7514085581851792 0.3456302363551869 -0.7514085581851792 0.3456302363551869 -0.7514085581851792 0.3456302363551869 -0.7514085581851792 0.3456302363551869
1550000000.0 -0.694489036373968 0.4205654945125986 -0.694489036373968 0.4205654945125986 -0.694489036373968 0.4205654945125986 -0.694489036373968 0.4205654945125986
1600000000.0 -0.636083471653107 0.510483792821059 -0.636083471653107 0.510483792821059 -0.636083471653107 0.510483792821059 -0.636083471653107 0.510483792821059
1650000000.0 -0.5777343045787926 0.568662522228076 -0.5777343045787926 0.568662522228076 -0.5777343045787926 0.568662522228076 -0.5777343045787926 0.568662522228076
1700000000.0 -0.49591424249023264 0.6399392947969039 -0.49591424249023264 0.6399392947969039 -0.49591424249023264 0.6399392947969039 -0.49591424249023264 0.6399392947969039
1750000000.0 -0.4302215319954946 0.6875996579260323 -0.4302215319954946 0.6875996579260323 -0.4302215319954946 0.6875996579260323 -0.4302215319954946 0.6875996579260323
1800000000.0 -0.3228336270527519 0.7276031185884927 -0.3228336270527519 0.7276031185884927 -0.3228336270527519 0.7276031185884927 -0.3228336270527519 0.7276031185884927
1850000000.0 -0.2610327104421532 0.76108797439893 -0.2610327104421532 0.76108797439893 -0.2610327104421532 0.76108797439893 -0.2610327104421532 0.76108797439893
1900000000.0 -0.1457810903697769 0.7776597824766148 -0.1457810903697769 0.7776597824766148 -0.1457810903697769 0.7776597824766148 -0.1457810903697769 0.7776597824766148
1950000000.0 -0.06875342503140669 0.8019006854247334 -0.06875342503140669 0.8019006854247334 -0.06875342503140669 0.8019006854247334 -0.06875342503140669 0.8019006854247334
2000000000.0 0.037222491448776686 0.7830685778876639 0.037222491448776686 0.7830685778876639 0.037222491448776686 0.7830685778876639 0.037222491448776686 0.7830685778876639
2050000000.0 0.12295258111075176 0.7910313094150664 0.12295258111075176 0.7910313094150664 0.12295258111075176 0.7910313094150664 0.12295258111075176 0.7910313094150664
2100000000.0 0.2145856381028105 0.7509186875046016 0.2145856381028105 0.7509186875046016 0.2145856381028105 0.7509186875046016 0.2145856381028105 0.7509186875046016
2150000000.0 0.30340547273492285 0.7328563689776255 0.30340547273492285 0.7328563689776255 0.30340547273492285 0.7328563689776255 0.30340547273492285 0.7328563689776255
2200000000.0 0.37846600461223656 0.6822750017075515 0.37846600461223656 0.6822750017075515 0.37846600461223656 0.6822750017075515 0.37846600461223656 0.6822750017075515
2250000000.0 0.4661696291558692 0.6303275076398459 0.4661696291558692 0.6303275076398459 0.4661696291558692 0.6303275076398459 0.4661696291558692 0.6303275076398459
2300000000.0 0.5234325896155513 0.5766945996709417 0.5234325896155513 0.5766945996709417 0.5234325896155513 0.5766945996709417 0.5234325896155513 0.5766945996709417
2350000000.0 0.594299619036919 0.5068959960164362 0.594299619036919 0.5068959960164362 0.594299619036919 0.5068959960164362 0.594299619036919 0.5068959960164362
2400000000.0 0.6429974301452472 0.4437334764273138 0.6429974301452472 0.4437334764273138 0.6429974301452472 0.4437334764273138 0.6429974301452472 0.4437334764273138
2450000000.0 0.6868254923893121 0.34163878379286655 0.6868254923893121 0.34163878379286655 0.6868254923893121 0.34163878379286655 0.6868254923893121 0.34163878379286655
2500000000.0 0.7230125064516827 0.2835189786564614 0.7230125064516827 0.2835189786564614 0.7230125064516827 0.2835189786564614 0.7230125064516827 0.2835189786564614
2550000000.0 0.7426847837944982 0.17947663581091558 0.7426847837944982 0.17947663581091558 0.7426847837944982 0.17947663581091558 0.7426847837944982 0.17947663581091558
2600000000.0 0.7668528217386408 0.11014882170874457 0.7668528217386408 0.11014882170874457 0.7668528217386408 0.11014882170874457 0.7668528217386408 0.11014882170874457
2650000000.0 0.7566163972997231 0.0032112002407417156 0.7566163972997231 0.0032112002407417156 0.7566163972997231 0.0032112002407417156 0.7566163972997231 0.0032112002407417156
2700000000.0 0.7683436178861205 -0.0739274202975694 0.7683436178861205 -0.0739274202975694 0.7683436178861205 -0.0739274202975694 0.7683436178861205 -0.0739274202975694
2750000000.0 0.73702722699142 -0.16728118332181846 0.73702722699142 -0.16728118332181846 0.73702722699142 -0.16728118332181846 0.73702722699142 -0.16728118332181846
2800000000.0 0.7274406391820624 -0.24616155407550946 0.7274406391820624 -0.24616155407550946 0.7274406391820624 -0.24616155407550946 0.7274406391820624 -0.24616155407550946
2850000000.0 0.6774454812510033 -0.3273170299295028 0.6774454812510033 -0.3273170299295028 0.6774454812510033 -0.3273170299295028 0.6774454812510033 -0.3273170299295028
2900000000.0 0.6429131575364664 -0.410752820713484 0.6429131575364664 -0.410752820713484 0.6429131575364664 -0.410752820713484 0.6429131575364664 -0.410752820713484
2950000000.0 0.5861487802086803 -0.4740991592420156 0.5861487802086803 -0.4740991592420156 0.5861487802086803 -0.4740991592420156 0.5861487802086803 -0.4740991592420156
3000000000.0 0.5309773256169833 -0.542716812697679 0.5309773256169833 -0.542716812697679 0.5309773256169833 -0.542716812697679 0.5309773256169833 -0.542716812697679
3050000000.0 0.4660075560814251 -0.5875482699160045 0.4660075560814251 -0.5875482699160045 0.4660075560814251 -0.5875482699160045 0.4660075560814251 -0.5875482699160045
3100000000.0 0.3813332810335173 -0.6432574328408315 0.3813332810335173 -0.6432574328408315 0.3813332810335173 -0.6432574328408315 0.3813332810335173 -0.6432574328408315
3150000000.0 0.322533107434589 -0.6796409142276654 0.322533107434589 -0.6796409142276654 0.322533107434589 -0.6796409142276654 0.322533107434589 -0.6796409142276654
3200000000.0 0.21870662484245948 -0.703899691369266 0.21870662484245948 -0.703899691369266 0.21870662484245948 -0.703899691369266 0.21870662484245948 -0.703899691369266
3250000000.0 0.1535716332741022 -0.7388830950071764 0.1535716332741022 -0.7388830950071764 0.1535716332741022 -0.7388830950071764 0.1535716332741022 -0.7388830950071764
3300000000.0 0.05668115779537678 -0.7344289377997879 0.05668115779537678 -0.7344289377997879 0.05668115779537678 -0.7344289377997879 0.05668115779537678 -0.7344289377997879
3350000000.0 -0.013170667244245442 -0.7488986300858741 -0.013170667244245442 -0.7488986300858741 -0.013170667244245442 -0.7488986300858741 -0.013170667244245442 -0.7488986300858741
3400000000.0 -0.11083180251074963 -0.7234524180721755 -0.11083180251074963 -0.7234524180721755 -0.11083180251074963 -0.7234524180721755 -0.11083180251074963 -0.7234524180721755
3450000000.0 -0.18315205907664725 -0.7230246592047544 -0.18315205907664725 -0.7230246592047544 -0.18315205907664725 -0.7230246592047544 -0.18315205907664725 -0.7230246592047544
3500000000.0 -0.2668153277057512 -0.6793585684643259 -0.2668153277057512 -0.6793585684643259 -0.2668153277057512 -0.6793585684643259 -0.2668153277057512 -0.6793585684643259
3550000000.0 -0.3482555491868942 -0.6527015980600794 -0.3482555491868942 -0.6527015980600794 -0.3482555491868942 -0.6527015980600794 -0.3482555491868942 -0.6527015980600794
3600000000.0 -0.4083138632967941 -0.6008402496513756 -0.4083138632967941 -0.6008402496513756 -0.4083138632967941 -0.6008402496513756 -0.4083138632967941 -0.6008402496513756
3650000000.0 -0.48740476631660834 -0.5432414599504576 -0.48740476631660834 -0.5432414599504576 -0.48740476631660834 -0.5432414599504576 -0.48740476631660834 -0.5432414599504576
3700000000.0 -0.5338864864474735 -0.4966598132559042 -0.5338864864474735 -0.4966598132559042 -0.5338864864474735 -0.4966598132559042 -0.5338864864474735 -0.4966598132559042
3750000000.0 -0.5900253137455125 -0.40828000416029747 -0.5900253137455125 -0.40828000416029747 -0.5900253137455125 -0.40828000416029747 -0.5900253137455125 -0.40828000416029747
3800000000.0 -0.6310898902334354 -0.3663065998242143 -0.6310898902334354 -0.3663065998242143 -0.6310898902334354 -0.3663065998242143 -0.6310898902334354 -0.3663065998242143
3850000000.0 -0.6604669275805668 -0.26786147372873614 -0.6604669275805668 -0.26786147372873614 -0.6604669275805668 -0.26786147372873614 -0.6604669275805668 -0.26786147372873614
3900000000.0 -0.6961686131133451 -0.21027032324708034 -0.6961686131133451 -0.21027032324708034 -0.6961686131133451 -0.21027032324708034 -0.6961686131133451 -0.21027032324708034
3950000000.0 -0.6943712107061756 -0.10549027423136693 -0.6943712107061756 -0.10549027423136693 -0.6943712107061756 -0.10549027423136693 -0.6943712107061756 -0.10549027423136693
4000000000.0 -0.7191128373774301 -0.05147373669526492 -0.7191128373774301 -0.05147373669526492 -0.7191128373774301 -0.05147373669526492 -0.7191128373774301 -0.05147373669526492
4050000000.0 -0.7039655080750982 0.048925946299125465 -0.7039655080750982 0.048925946299125465 -0.7039655080750982 0.048925946299125465 -0.7039655080750982 0.048925946299125465
4100000000.0 -0.7075376582975466 0.11847901307759282 -0.7075376582975466 0.11847901307759282 -0.7075376582975466 0.11847901307759282 -0.7075376582975466 0.11847901307759282
4150000000.0 -0.6706055908778129 0.20261829132962922 -0.6706055908778129 0.20261829132962922 -0.6706055908778129 0.20261829132962922 -0.6706055908778129 0.20261829132962922
4200000000.0 -0.6595908110417236 0.2724595518985541 -0.6595908110417236 0.2724595518985541 -0.6595908110417236 0.2724595518985541 -0.6595908110417236 0.2724595518985541
4250000000.0 -0.6100187747679486 0.33985586104229315 -0.6100187747679486 0.33985586104229315 -0.6100187747679486 0.33985586104229315 -0.6100187747679486 0.33985586104229315
4300000000.0 -0.5565804475779882 0.424096640829924 -0.5565804475779882 0.424096640829924 -0.5565804475779882 0.424096640829924 -0.5565804475779882 0.424096640829924
4350000000.0 -0.5238406291173233 0.46742233980693376 -0.5238406291173233 0.46742233980693376 -0.5238406291173233 0.46742233980693376 -0.5238406291173233 0.46742233980693376
4400000000.0 -0.44038603159414885 0.5297087399816394 -0.44038603159414885 0.5297087399816394 -0.44038603159414885 0.5297087399816394 -0.44038603159414885 0.5297087399816394
4450000000.0 -0.40232700545925154 0.5759729156373502 -0.40232700545925154 0.5759729156373502 -0.40232700545925154 0.5759729156373502 -0.40232700545925154 0.5759729156373502
4500000000.0 -0.3119912644132128 0.6087462419862348 -0.3119912644132128 0.6087462419862348 -0.3119912644132128 0.6087462419862348 -0.3119912644132128 0.6087462419862348
4550000000.0 -0.24843452764203725 0.6564376276886573 -0.24843452764203725 0.6564376276886573 -0.24843452764203725 0.6564376276886573 -0.24843452764203725 0.6564376276886573
4600000000.0 -0.1650854719339145 0.6602411190776538 -0.1650854719339145 0.6602411190776538 -0.1650854719339145 0.6602411190776538 -0.1650854719339145 0.6602411190776538
4650000000.0 -0.10066019714191136 0.681296082523291 -0.10066019714191136 0.681296082523291 -0.10066019714191136 0.681296082523291 -0.10066019714191136 0.681296082523291
4700000000.0 -0.012228796841637926 0.6779847608607802 -0.012228796841637926 0.6779847608607802 -0.012228796841637926 0.6779847608607802 -0.012228796841637926 0.6779847608607802
4750000000.0 0.054952200332207456 0.6834934573426648 0.054952200332207456 0.6834934573426648 0.054952200332207456 0.6834934573426648 0.054952200332207456 0.6834934573426648
4800000000.0 0.13655074535092512 0.657217885280444 0.13655074535092512 0.657217885280444 0.13655074535092512 0.657217885280444 0.13655074535092512 0.657217885280444
4850000000.0 0.2149426820304867 0.6451889873282498 0.2149426820304867 0.6451889873282498 0.2149426820304867 0.6451889873282498 0.2149426820304867 0.6451889873282498
4900000000.0 0.2716315780241728 0.6115615353847993 0.2716315780241728 0.6115615353847993 0.2716315780241728 0.6115615353847993 0.2716315780241728 0.6115615353847993
4950000000.0 0.348174752005942 0.5770992648437049 0.348174752005942 0.5770992648437049 0.348174752005942 0.5770992648437049 0.348174752005942 0.5770992648437049
5000000000.0 0.4041506219858826 0.539559925633944 0.4041506219858826 0.539559925633944 0.4041506219858826 0.539559925633944 0.4041506219858826 0.539559925633944
5050000000.0 0.46592136612502033 0.46622986411030826 0.46592136612502033 0.46622986411030826 0.46592136612502033 0.46622986411030826 0.46592136612502033 0.46622986411030826
5100000000.0 0.5152376546449556 0.42761421512268843 0.5152376546449556 0.42761421512268843 0.5152376546449556 0.42761421512268843 0.5152376546449556 0.42761421512268843
5150000000.0 0.5536609689241738 0.3554548620653807 0.5536609689241738 0.3554548620653807 0.5536609689241738 0.3554548620653807 0.5536609689241738 0.3554548620653807
5200000000.0 0.5956022426154902 0.29125953349864847 0.5956022426154902 0.29125953349864847 0.5956022426154902 0.29125953349864847 0.5956022426154902 0.29125953349864847
5250000000.0 0.6189415008990423 0.22014745304466207 0.6189415008990423 0.22014745304466207 0.6189415008990423 0.22014745304466207 0.6189415008990423 0.22014745304466207
5300000000.0 0.6379767078971014 0.1551536243608696 0.6379767078971014 0.1551536243608696 0.6379767078971014 0.1551536243608696 0.6379767078971014 0.1551536243608696
5350000000.0 0.6465569601717027 0.07040156774481451 0.6465569601717027 0.07040156774481451 0.6465569601717027 0.07040156774481451 0.6465569601717027 0.07040156774481451
5400000000.0 0.6579218004508841 -0.0007222365425066083 0.6579218004508841 -0.0007222365425066083 0.6579218004508841 -0.0007222365425066083 0.6579218004508841 -0.0007222365425066083
5450000000.0 0.6352602640604572 -0.07258647467163112 0.6352602640604572 -0.07258647467163112 0.6352602640604572 -0.07258647467163112 0.6352602640604572 -0.07258647467163112
5500000000.0 0.6369949505640324 -0.14289950464104212 0.6369949505640324 -0.14289950464104212 0.6369949505640324 -0.14289950464104212 0.6369949505640324 -0.14289950464104212
5550000000.0 0.6059512985428396 -0.2080494958437632 0.6059512985428396 -0.2080494958437632 0.6059512985428396 -0.2080494958437632 0.6059512985428396 -0.2080494958437632
5600000000.0 0.5737439917557391 -0.2868814370879848 0.5737439917557391 -0.2868814370879848 0.5737439917557391 -0.2868814370879848 0.5737439917557391 -0.2868814370879848
5650000000.0 0.5475628156882263 -0.33895117613236864 0.5475628156882263 -0.33895117613236864 0.5475628156882263 -0.33895117613236864 0.5475628156882263 -0.33895117613236864
5700000000.0 0.4872037970488643 -0.4015460195483066 0.4872037970488643 -0.4015460195483066 0.4872037970488643 -0.4015460195483066 0.4872037970488643 -0.4015460195483066
5750000000.0 0.45297695149386746 -0.4545981056545682 0.45297695149386746 -0.4545981056545682 0.45297695149386746 -0.4545981056545682 0.45297695149386746 -0.4545981056545682
5800000000.0 0.38446517627183413 -0.4967757665696938 0.38446517627183413 -0.4967757665696938 0.38446517627183413 -0.4967757665696938 0.38446517627183413 -0.4967757665696938
5850000000.0 0.3329367354360331 -0.5379754938114664 0.3329367354360331 -0.5379754938114664 0.3329367354360331 -0.5379754938114664 0.3329367354360331 -0.5379754938114664
5900000000.0 0.2635416143338551 -0.5719487696149438 0.2635416143338551 -0.5719487696149438 0.2635416143338551 -0.5719487696149438 0.2635416143338551 -0.5719487696149438
5950000000.0 0.2102252927367203 -0.5907822300485925 0.2102252927367203 -0.5907822300485925 0.2102252927367203 -0.5907822300485925 0.2102252927367203 -0.5907822300485925
6000000000.0 0.12303893487281796 -0.6079911141830916 0.12303893487281796 -0.6079911141830916 0.12303893487281796 -0.6079911141830916 0.12303893487281796 -0.6079911141830916
