! Created with skrf 2.0.0 (http://scikit-rf.org).
# Hz S RI R 50.0 
!freq ReS11 ImS11
!
100000000.0 0.2665287634644393 -0.05805621465383362
150000000.0 0.2577748458561483 -0.08480127500754253
200000000.0 0.24800882370639613 -0.11282976665045187
250000000.0 0.23412925067990079 -0.13710329476153046
300000000.0 0.2179185498241879 -0.16233167628960346
350000000.0 0.20002446390124012 -0.18346031239534719
400000000.0 0.1780045986956182 -0.20404558444666623
450000000.0 0.15630900579274928 -0.22121423741022983
500000000.0 0.13043327747397998 -0.23632907665163227
550000000.0 0.10580188190396404 -0.24967882367097927
600000000.0 0.07759096129824462 -0.25799695595106487
650000000.0 0.0503669399015686 -0.26667876692554315
700000000.0 0.021570723257376478 -0.26922066518227766
750000000.0 -0.00851709225465523 -0.2724724654507314
800000000.0 -0.03799677406566153 -0.2691133773571155
850000000.0 -0.06961944385856267 -0.2649803121691774
900000000.0 -0.0989296584868193 -0.2541771092037988
950000000.0 -0.12870334823482416 -0.24002208949513493
1000000000.0 -0.15345366623064008 -0.22250155428629556
1050000000.0 -0.17727330459011995 -0.20156696217155318
1100000000.0 -0.1968069817372634 -0.18045392199346783
1150000000.0 -0.21440851245963158 -0.15506999449072287
1200000000.0 -0.22967095794943113 -0.13129737847299264
1250000000.0 -0.24030960003444687 -0.10329648205247997
1300000000.0 -0.25081685656048996 -0.07709710753899916
1350000000.0 -0.2550614662088741 -0.04826292918077522
1400000000.0 -0.2597313161299007 -0.019276444565230373
1450000000.0 -0.2579601846080126 0.008832056312289739
1500000000.0 -0.2563677469329067 0.03801307361446949
1550000000.0 -0.24908177804950613 0.06508203764852852
1600000000.0 -0.2397913428120389 0.09340388974740069
1650000000.0 -0.2279776808297118 0.11790225880485695
1700000000.0 -0.21237915127044482 0.14344093310654552
1750000000.0 -0.19619645337358288 0.16515271461458378
1800000000.0 -0.1747125090875008 0.1858685505412496
1850000000.0 -0.15459784875699878 0.20472148883521096
1900000000.0 -0.129528077246633 0.21990868986230663
1950000000.0 -0.10508207555995255 0.23396896496379457
2000000000.0 -0.0778422001433896 0.2427345796159781
2050000000.0 -0.05085596156354925 0.2513047796403983
2100000000.0 -0.023126425831765014 0.2542219399418106
2150000000.0 0.0061824460011224895 0.2563947039277742
2200000000.0 0.033561659352418546 0.25341524533804044
2250000000.0 0.06286421071016342 0.2484411314686686
2300000000.0 0.08857878761066475 0.24096248061901762
2350000000.0 0.1159437576078462 0.2295248003881948
2400000000.0 0.13980227664160913 0.21617000643690737
2450000000.0 0.163513972177446 0.19861149269829795
2500000000.0 0.18500162700712683 0.18102097478205945
2550000000.0 0.20346795667170398 0.1587286739368035
2600000000.0 0.22044973556430977 0.13711249165100134
2650000000.0 0.23337079506009734 0.11098881826161221
2700000000.0 0.24599925228455413 0.08573356646551432
2750000000.0 0.2533289809258171 0.05846850494600971
2800000000.0 0.2597927830637406 0.03033226828078217
2850000000.0 0.2601171445306206 0.0017483855162680946
2900000000.0 0.26072748167311843 -0.0274292245181455
2950000000.0 0.2562434852164787 -0.05454609196350509
3000000000.0 0.24922081169467447 -0.0831853396604015
3050000000.0 0.2396622012715662 -0.1089808294163085
3100000000.0 0.22622307235417813 -0.13554366844162546
3150000000.0 0.21155436208702366 -0.15881099961074038
3200000000.0 0.19199925606290205 -0.18128094275831153
3250000000.0 0.173085733673174 -0.2017811845674252
3300000000.0 0.14936651599736436 -0.21889429892213882
3350000000.0 0.12592225192881915 -0.2351251062391245
3400000000.0 0.100456929238102 -0.24632762220914406
3450000000.0 0.07336535881770881 -0.2574418380003977
3500000000.0 0.04476641660093577 -0.2630488457863979
3550000000.0 0.015280892556211683 -0.2676648964081357
3600000000.0 -0.012450914619991984 -0.2675685607631383
3650000000.0 -0.042669019363972244 -0.26519103527548066
3700000000.0 -0.07004327213756921 -0.2597594295816353
3750000000.0 -0.09848335852584596 -0.25039434878834704
3800000000.0 -0.12449239967313182 -0.23973332436729466
3850000000.0 -0.14998974253508535 -0.22387400371940241
3900000000.0 -0.1725581916165983 -0.20844376171320672
3950000000.0 -0.194714749205416 -0.18731337436956846
4000000000.0 -0.21467434952751024 -0.16666197539862315
4050000000.0 -0.23088937728657286 -0.14184329690718753
4100000000.0 -0.24625618817664838 -0.11699780213736667
4150000000.0 -0.2564168422992585 -0.08970428884342153
4200000000.0 -0.26596618902033176 -0.06138960173351064
4250000000.0 -0.2706615486182949 -0.03324665731291057
4300000000.0 -0.27336000803078025 -0.0030412235773087863
4350000000.0 -0.2722664291608148 0.025541032453325233
4400000000.0 -0.2679463470247925 0.055815143182901955
4450000000.0 -0.26142165801308953 0.08341792519151837
4500000000.0 -0.2512553652894521 0.11183658798018582
4550000000.0 -0.23838750422929983 0.13787451966382996
4600000000.0 -0.22149992609541425 0.1627203045109954
4650000000.0 -0.20393730186977524 0.18563420370651826
4700000000.0 -0.18241431067213254 0.2066154250865131
4750000000.0 -0.16056291095451278 0.2255823365799599
4800000000.0 -0.13492275857092076 0.24111096319047637
4850000000.0 -0.10812085051172396 0.25523638918371616
4900000000.0 -0.08076921508923611 0.26475179701170715
4950000000.0 -0.05106961287579982 0.27269362298592514
5000000000.0 -0.022965602106605414 0.2768677561018586
5050000000.0 0.007734195140815282 0.27757299410878666
5100000000.0 0.036767211701889416 0.27627255603042017
5150000000.0 0.06648097240208999 0.2700103647982447
5200000000.0 0.09513459724222031 0.2627572947199209
5250000000.0 0.12226507500083617 0.2504624360866563
5300000000.0 0.1486561245585608 0.23705146707914018
5350000000.0 0.17305776257556185 0.21935716486332102
5400000000.0 0.19634818725085224 0.2000708664782202
5450000000.0 0.2158420107877782 0.17807372156827453
5500000000.0 0.23465146167228576 0.1545637471850499
5550000000.0 0.24927079349974146 0.12900122470012879
5600000000.0 0.26220485092627793 0.10145757160963774
5650000000.0 0.27148698201993376 0.07338574043998951
5700000000.0 0.278214048682793 0.043446200350401795
5750000000.0 0.2819380998716547 0.01398279725245086
5800000000.0 0.28144452232927913 -0.01659285777420936
5850000000.0 0.2790876056740396 -0.04582835541367996
5900000000.0 0.271943472550977 -0.07573985892502565
5950000000.0 0.2633649328802165 -0.10406510805037572
6000000000.0 0.2503430322401226 -0.13168114657704472
