! Created with skrf 2.0.0 (http://scikit-rf.org).
# Hz S RI R 50.0 
!freq ReS11 ImS11 ReS21 ImS21 ReS12 ImS12 ReS22 ImS22
100000000.0 0.15048571041800757 -0.034781765169117934 0.15048571041800757 -0.034781765169117934 0.15048571041800757 -0.034781765169117934 0.15048571041800757 -0.034781765169117934
150000000.0 0.1317686020932031 -0.03925744735150246 0.1317686020932031 -0.03925744735150246 0.1317686020932031 -0.03925744735150246 0.1317686020932031 -0.03925744735150246
200000000.0 0.13984639928012033 -0.06517844649565131 0.13984639928012033 -0.06517844649565131 0.13984639928012033 -0.06517844649565131 0.13984639928012033 -0.06517844649565131
250000000.0 0.12619974797912825 -0.0669822144021492 0.12619974797912825 -0.0669822144021492 0.12619974797912825 -0.0669822144021492 0.12619974797912825 -0.0669822144021492
300000000.0 0.12050771291969428 -0.09148543402947294 0.12050771291969428 -0.09148543402947294 0.12050771291969428 -0.09148543402947294 0.12050771291969428 -0.09148543402947294
350000000.0 0.11360101724088303 -0.09437481459011676 0.11360101724088303 -0.09437481459011676 0.11360101724088303 -0.09437481459011676 0.11360101724088303 -0.09437481459011676
400000000.0 0.09531796520086179 -0.11165069294599247 0.09531796520086179 -0.11165069294599247 0.09531796520086179 -0.11165069294599247 0.09531796520086179 -0.11165069294599247
450000000.0 0.09413683827594811 -0.12490366259561246 0.09413683827594811 -0.12490366259561246 0.09413683827594811 -0.12490366259561246 0.09413683827594811 -0.12490366259561246
500000000.0 0.06945391680189285 -0.12739958156564754 0.06945391680189285 -0.12739958156564754 0.06945391680189285 -0.12739958156564754 0.06945391680189285 -0.12739958156564754
550000000.0 0.06555478595158433 -0.1495771882063739 0.06555478595158433 -0.1495771882063739 0.06555478595158433 -0.1495771882063739 0.06555478595158433 -0.1495771882063739
600000000.0 0.04111084490413471 -0.1389446323505242 0.04111084490413471 -0.1389446323505242 0.04111084490413471 -0.1389446323505242 0.04111084490413471 -0.1389446323505242
650000000.0 0.029457073445521866 -0.1655285691987985 0.029457073445521866 -0.1655285691987985 0.029457073445521866 -0.1655285691987985 0.029457073445521866 -0.1655285691987985
700000000.0 0.009333809027393943 -0.14742129432458415 0.009333809027393943 -0.14742129432458415 0.009333809027393943 -0.14742129432458415 0.009333809027393943 -0.14742129432458415
750000000.0 -0.01466849845584368 -0.17014304561210464 -0.01466849845584368 -0.17014304561210464 -0.01466849845584368 -0.17014304561210464 -0.01466849845584368 -0.17014304561210464
800000000.0 -0.03036334271232947 -0.1477851422001966 -0.03036334271232947 -0.1477851422001966 -0.03036334271232947 -0.1477851422001966 -0.03036334271232947 -0.1477851422001966
850000000.0 -0.06157691563216848 -0.15599410390663143 -0.06157691563216848 -0.15599410390663143 -0.06157691563216848 -0.15599410390663143 -0.06157691563216848 -0.15599410390663143
900000000.0 -0.06897226084748455 -0.1351135446166484 -0.06897226084748455 -0.1351135446166484 -0.06897226084748455 -0.1351135446166484 -0.06897226084748455 -0.1351135446166484
950000000.0 -0.09651849401029591 -0.12252298682473003 -0.09651849401029591 -0.12252298682473003 -0.09651849401029591 -0.12252298682473003 -0.09651849401029591 -0.12252298682473003
1000000000.0 -0.09917179797971637 -0.11274173840563909 -0.09917179797971637 -0.11274173840563909 -0.09917179797971637 -0.11274173840563909 -0.09917179797971637 -0.11274173840563909
1050000000.0 -0.11379935386882557 -0.08561259648641575 -0.11379935386882557 -0.08561259648641575 -0.11379935386882557 -0.08561259648641575 -0.11379935386882557 -0.08561259648641575
1100000000.0 -0.12302678522334318 -0.08623925691001467 -0.12302678522334318 -0.08623925691001467 -0.12302678522334318 -0.08623925691001467 -0.12302678522334318 -0.08623925691001467
1150000000.0 -0.12106217382076523 -0.053889409136502024 -0.12106217382076523 -0.053889409136502024 -0.12106217382076523 -0.053889409136502024 -0.12106217382076523 -0.053889409136502024
1200000000.0 -0.1397844650517735 -0.05462423231191755 -0.1397844650517735 -0.05462423231191755 -0.1397844650517735 -0.05462423231191755 -0.1397844650517735 -0.05462423231191755
1250000000.0 -0.12366419549213503 -0.024966985564702723 -0.12366419549213503 -0.024966985564702723 -0.12366419549213503 -0.024966985564702723 -0.12366419549213503 -0.024966985564702723
1300000000.0 -0.1477170486286072 -0.017946314876607996 -0.1477170486286072 -0.017946314876607996 -0.1477170486286072 -0.017946314876607996 -0.1477170486286072 -0.017946314876607996
1350000000.0 -0.12292899664967163 0.002342948218369195 -0.12292899664967163 0.002342948218369195 -0.12292899664967163 0.002342948218369195 -0.12292899664967163 0.002342948218369195
1400000000.0 -0.14327352404942617 0.01718484494396695 -0.14327352404942617 0.01718484494396695 -0.14327352404942617 0.01718484494396695 -0.14327352404942617 0.01718484494396695
1450000000.0 -0.1190017876313196 0.028724875954657024 -0.1190017876313196 0.028724875954657024 -0.1190017876313196 0.028724875954657024 -0.1190017876313196 0.028724875954657024
1500000000.0 -0.12814834105283793 0.05166386298027421 -0.12814834105283793 0.05166386298027421 -0.12814834105283793 0.05166386298027421 -0.12814834105283793 0.05166386298027421
1550000000.0 -0.11252187699605257 0.054826266298501986 -0.11252187699605257 0.054826266298501986 -0.11252187699605257 0.054826266298501986 -0.11252187699605257 0.054826266298501986
1600000000.0 -0.10401148964515756 0.0786245516582726 -0.10401148964515756 0.0786245516582726 -0.10401148964515756 0.0786245516582726 -0.10401148964515756 0.0786245516582726
1650000000.0 -0.10102648962472494 0.080874398757936 -0.10102648962472494 0.080874398757936 -0.10102648962472494 0.080874398757936 -0.10102648962472494 0.080874398757936
1700000000.0 -0.08027218886586455 0.09770843063840931 -0.08027218886586455 0.09770843063840931 -0.08027218886586455 0.09770843063840931 -0.08027218886586455 0.09770843063840931
1750000000.0 -0.08275123409689678 0.1066230508517281 -0.08275123409689678 0.1066230508517281 -0.08275123409689678 0.1066230508517281 -0.08275123409689678 0.1066230508517281
1800000000.0 -0.05082083697232103 0.10648346053502424 -0.05082083697232103 0.10648346053502424 -0.05082083697232103 0.10648346053502424 -0.05082083697232103 0.10648346053502424
1850000000.0 -0.05601697931525601 0.12053798456571682 -0.05601697931525601 0.12053798456571682 -0.05601697931525601 0.12053798456571682 -0.05601697931525601 0.12053798456571682
1900000000.0 -0.02504663785272387 0.11363744491028316 -0.02504663785272387 0.11363744491028316 -0.02504663785272387 0.11363744491028316 -0.02504663785272387 0.11363744491028316
1950000000.0 -0.02152795562936398 0.1338165429099452 -0.02152795562936398 0.1338165429099452 -0.02152795562936398 0.1338165429099452 -0.02152795562936398 0.1338165429099452
2000000000.0 0.00043587587949162065 0.11626416896756536 0.00043587587949162065 0.11626416896756536 0.00043587587949162065 0.11626416896756536 0.00043587587949162065 0.11626416896756536
2050000000.0 0.011771279158821507 0.13212519788519766 0.011771279158821507 0.13212519788519766 0.011771279158821507 0.13212519788519766 0.011771279158821507 0.13212519788519766
2100000000.0 0.024093245344432537 0.11492913664392232 0.024093245344432537 0.11492913664392232 0.024093245344432537 0.11492913664392232 0.024093245344432537 0.11492913664392232
2150000000.0 0.04257011291065485 0.12052978927565157 0.04257011291065485 0.12052978927565157 0.04257011291065485 0.12052978927565157 0.04257011291065485 0.12052978927565157
2200000000.0 0.04973107414717767 0.10987110556473967 0.04973107414717767 0.10987110556473967 0.04973107414717767 0.10987110556473967 0.04973107414717767 0.10987110556473967
2250000000.0 0.07125723015947893 0.10311820743519864 0.07125723015947893 0.10311820743519864 0.07125723015947893 0.10311820743519864 0.07125723015947893 0.10311820743519864
2300000000.0 0.0733019871793413 0.0990126407463337 0.0733019871793413 0.0990126407463337 0.0733019871793413 0.0990126407463337 0.0733019871793413 0.0990126407463337
2350000000.0 0.09170510112162288 0.08514267658045734 0.09170510112162288 0.08514267658045734 0.09170510112162288 0.08514267658045734 0.09170510112162288 0.08514267658045734
2400000000.0 0.0979339386082824 0.0849479847924352 0.0979339386082824 0.0849479847924352 0.0979339386082824 0.0849479847924352 0.0979339386082824 0.0849479847924352
2450000000.0 0.10343753311413366 0.055206216538168124 0.10343753311413366 0.055206216538168124 0.10343753311413366 0.055206216538168124 0.10343753311413366 0.055206216538168124
2500000000.0 0.11575146452483301 0.05898124843039321 0.11575146452483301 0.05898124843039321 0.11575146452483301 0.05898124843039321 0.11575146452483301 0.05898124843039321
2550000000.0 0.11266799078832643 0.03261596810667835 0.11266799078832643 0.03261596810667835 0.11266799078832643 0.03261596810667835 0.11266799078832643 0.03261596810667835
2600000000.0 0.12667125312454308 0.03188364494944431 0.12667125312454308 0.03188364494944431 0.12667125312454308 0.03188364494944431 0.12667125312454308 0.03188364494944431
2650000000.0 0.11609236067912442 0.008888898316414158 0.11609236067912442 0.008888898316414158 0.11609236067912442 0.008888898316414158 0.11609236067912442 0.008888898316414158
2700000000.0 0.1296006403144549 0.0009552396336616059 0.1296006403144549 0.0009552396336616059 0.1296006403144549 0.0009552396336616059 0.1296006403144549 0.0009552396336616059
2750000000.0 0.11815862388293993 -0.01802932229592872 0.11815862388293993 -0.01802932229592872 0.11815862388293993 -0.01802932229592872 0.11815862388293993 -0.01802932229592872
2800000000.0 0.1275681698331033 -0.027817393757363175 0.1275681698331033 -0.027817393757363175 0.1275681698331033 -0.027817393757363175 0.1275681698331033 -0.027817393757363175
2850000000.0 0.11183997118313829 -0.04207032466519833 0.11183997118313829 -0.04207032466519833 0.11183997118313829 -0.04207032466519833 0.11183997118313829 -0.04207032466519833
2900000000.0 0.11601762320093123 -0.06007401948434097 0.11601762320093123 -0.06007401948434097 0.11601762320093123 -0.06007401948434097 0.11601762320093123 -0.06007401948434097
2950000000.0 0.10659432927537532 -0.06431115908278041 0.10659432927537532 -0.06431115908278041 0.10659432927537532 -0.06431115908278041 0.10659432927537532 -0.06431115908278041
3000000000.0 0.09950127126617417 -0.08502061733072822 0.09950127126617417 -0.08502061733072822 0.09950127126617417 -0.08502061733072822 0.09950127126617417 -0.08502061733072822
3050000000.0 0.09242257352502414 -0.08593196386973201 0.09242257352502414 -0.08593196386973201 0.09242257352502414 -0.08593196386973201 0.09242257352502414 -0.08593196386973201
3100000000.0 0.07423050350014376 -0.10053557889427776 0.07423050350014376 -0.10053557889427776 0.07423050350014376 -0.10053557889427776 0.07423050350014376 -0.10053557889427776
3150000000.0 0.07437554204724484 -0.1093188205604774 0.07437554204724484 -0.1093188205604774 0.07437554204724484 -0.1093188205604774 0.07437554204724484 -0.1093188205604774
3200000000.0 0.048806437237996755 -0.10932404263130727 0.048806437237996755 -0.10932404263130727 0.048806437237996755 -0.10932404263130727 0.048806437237996755 -0.10932404263130727
3250000000.0 0.04790085558979306 -0.1290146572829671 0.04790085558979306 -0.1290146572829671 0.04790085558979306 -0.1290146572829671 0.04790085558979306 -0.1290146572829671
3300000000.0 0.02359005928135112 -0.12084140524162104 0.02359005928135112 -0.12084140524162104 0.02359005928135112 -0.12084140524162104 0.02359005928135112 -0.12084140524162104
3350000000.0 0.021845355054414692 -0.13257043924596318 0.021845355054414692 -0.13257043924596318 0.021845355054414692 -0.13257043924596318 0.021845355054414692 -0.13257043924596318
3400000000.0 -0.0016724446348245423 -0.12330943978748121 -0.0016724446348245423 -0.12330943978748121 -0.0016724446348245423 -0.12330943978748121 -0.0016724446348245423 -0.12330943978748121
3450000000.0 -0.007784711668410514 -0.13569889059867507 -0.007784711668410514 -0.13569889059867507 -0.007784711668410514 -0.13569889059867507 -0.007784711668410514 -0.13569889059867507
3500000000.0 -0.023004728817563637 -0.12309289329708331 -0.023004728817563637 -0.12309289329708331 -0.023004728817563637 -0.12309289329708331 -0.023004728817563637 -0.12309289329708331
3550000000.0 -0.0428744895053784 -0.12815106043513105 -0.0428744895053784 -0.12815106043513105 -0.0428744895053784 -0.12815106043513105 -0.0428744895053784 -0.12815106043513105
3600000000.0 -0.046178858591533124 -0.11671357443130363 -0.046178858591533124 -0.11671357443130363 -0.046178858591533124 -0.11671357443130363 -0.046178858591533124 -0.11671357443130363
3650000000.0 -0.07166230262946391 -0.10934189591335573 -0.07166230262946391 -0.10934189591335573 -0.07166230262946391 -0.10934189591335573 -0.07166230262946391 -0.10934189591335573
3700000000.0 -0.07351273121870504 -0.10977322617779228 -0.07351273121870504 -0.10977322617779228 -0.07351273121870504 -0.10977322617779228 -0.07351273121870504 -0.10977322617779228
3750000000.0 -0.08846420383788445 -0.08610521398410957 -0.08846420383788445 -0.08610521398410957 -0.08846420383788445 -0.08610521398410957 -0.08846420383788445 -0.08610521398410957
3800000000.0 -0.09885752704830415 -0.09497880228833992 -0.09885752704830415 -0.09497880228833992 -0.09885752704830415 -0.09497880228833992 -0.09885752704830415 -0.09497880228833992
3850000000.0 -0.10210806494363286 -0.06810498696214298 -0.10210806494363286 -0.06810498696214298 -0.10210806494363286 -0.06810498696214298 -0.10210806494363286 -0.06810498696214298
3900000000.0 -0.1178264425174388 -0.0699564777258608 -0.1178264425174388 -0.0699564777258608 -0.1178264425174388 -0.0699564777258608 -0.1178264425174388 -0.0699564777258608
3950000000.0 -0.11139894639325913 -0.04523255748901489 -0.11139894639325913 -0.04523255748901489 -0.11139894639325913 -0.04523255748901489 -0.11139894639325913 -0.04523255748901489
4000000000.0 -0.12541556713850158 -0.045537854680640324 -0.12541556713850158 -0.045537854680640324 -0.12541556713850158 -0.045537854680640324 -0.12541556713850158 -0.045537854680640324
4050000000.0 -0.12410434433744978 -0.01989865895907523 -0.12410434433744978 -0.01989865895907523 -0.12410434433744978 -0.01989865895907523 -0.12410434433744978 -0.01989865895907523
4100000000.0 -0.13516157673738532 -0.014206862648130349 -0.13516157673738532 -0.014206862648130349 -0.13516157673738532 -0.014206862648130349 -0.13516157673738532 -0.014206862648130349
4150000000.0 -0.12372830752057562 0.004198172340113826 -0.12372830752057562 0.004198172340113826 -0.12372830752057562 0.004198172340113826 -0.12372830752057562 0.004198172340113826
4200000000.0 -0.1353053055710752 0.015929867892239668 -0.1353053055710752 0.015929867892239668 -0.1353053055710752 0.015929867892239668 -0.1353053055710752 0.015929867892239668
4250000000.0 -0.1231206074710166 0.0255721416224994 -0.1231206074710166 0.0255721416224994 -0.1231206074710166 0.0255721416224994 -0.1231206074710166 0.0255721416224994
4300000000.0 -0.11737563513490883 0.052713080827490676 -0.11737563513490883 0.052713080827490676 -0.11737563513490883 0.052713080827490676 -0.11737563513490883 0.052713080827490676
4350000000.0 -0.12224175379872694 0.052629044411669164 -0.12224175379872694 0.052629044411669164 -0.12224175379872694 0.052629044411669164 -0.12224175379872694 0.052629044411669164
4400000000.0 -0.09971064746040037 0.0713259676627845 -0.09971064746040037 0.0713259676627845 -0.09971064746040037 0.0713259676627845 -0.09971064746040037 0.0713259676627845
4450000000.0 -0.1082268393669771 0.08265249488175519 -0.1082268393669771 0.08265249488175519 -0.1082268393669771 0.08265249488175519 -0.1082268393669771 0.08265249488175519
4500000000.0 -0.08439073638278577 0.08822882852787399 -0.08439073638278577 0.08822882852787399 -0.08439073638278577 0.08822882852787399 -0.08439073638278577 0.08822882852787399
4550000000.0 -0.08416138158297873 0.11011072713431838 -0.08416138158297873 0.11011072713431838 -0.08416138158297873 0.11011072713431838 -0.08416138158297873 0.11011072713431838
4600000000.0 -0.0635446629218085 0.10521003128777684 -0.0635446629218085 0.10521003128777684 -0.0635446629218085 0.10521003128777684 -0.0635446629218085 0.10521003128777684
4650000000.0 -0.06068073536039619 0.11428334282081433 -0.06068073536039619 0.11428334282081433 -0.06068073536039619 0.11428334282081433 -0.06068073536039619 0.11428334282081433
4700000000.0 -0.038083697811286246 0.11799532617575324 -0.038083697811286246 0.11799532617575324 -0.038083697811286246 0.11799532617575324 -0.038083697811286246 0.11799532617575324
4750000000.0 -0.034904056405709816 0.12630548291589283 -0.034904056405709816 0.12630548291589283 -0.034904056405709816 0.12630548291589283 -0.034904056405709816 0.12630548291589283
4800000000.0 -0.01548345180522356 0.11967774894172602 -0.01548345180522356 0.11967774894172602 -0.01548345180522356 0.11967774894172602 -0.01548345180522356 0.11967774894172602
4850000000.0 0.0004132771730282689 0.1305215070152277 0.0004132771730282689 0.1305215070152277 0.0004132771730282689 0.1305215070152277 0.0004132771730282689 0.1305215070152277
4900000000.0 0.005049606802046098 0.12201817794283798 0.005049606802046098 0.12201817794283798 0.005049606802046098 0.12201817794283798 0.005049606802046098 0.12201817794283798
4950000000.0 0.02640033394468503 0.12461886239362785 0.02640033394468503 0.12461886239362785 0.02640033394468503 0.12461886239362785 0.02640033394468503 0.12461886239362785
5000000000.0 0.031699388378605704 0.12709253827547184 0.031699388378605704 0.12709253827547184 0.031699388378605704 0.12709253827547184 0.031699388378605704 0.12709253827547184
5050000000.0 0.0509154719219025 0.10737518975536113 0.0509154719219025 0.10737518975536113 0.0509154719219025 0.10737518975536113 0.0509154719219025 0.10737518975536113
5100000000.0 0.0628047527263948 0.11311369925130835 0.0628047527263948 0.11311369925130835 0.0628047527263948 0.11311369925130835 0.0628047527263948 0.11311369925130835
5150000000.0 0.07077301884335549 0.09904780688235283 0.07077301884335549 0.09904780688235283 0.07077301884335549 0.09904780688235283 0.07077301884335549 0.09904780688235283
5200000000.0 0.08500734011511245 0.09339682489452092 0.08500734011511245 0.09339682489452092 0.08500734011511245 0.09339682489452092 0.08500734011511245 0.09339682489452092
5250000000.0 0.09402321040571085 0.08083505729770413 0.09402321040571085 0.08083505729770413 0.09402321040571085 0.08083505729770413 0.09402321040571085 0.08083505729770413
5300000000.0 0.09748716291379304 0.07632009350578359 0.09748716291379304 0.07632009350578359 0.09748716291379304 0.07632009350578359 0.09748716291379304 0.07632009350578359
5350000000.0 0.10757763614780641 0.053738277791784486 0.10757763614780641 0.053738277791784486 0.10757763614780641 0.053738277791784486 0.10757763614780641 0.053738277791784486
5400000000.0 0.11959383465932802 0.049984823930962374 0.11959383465932802 0.049984823930962374 0.11959383465932802 0.049984823930962374 0.11959383465932802 0.049984823930962374
5450000000.0 0.1088673343673233 0.028718947331738815 0.1088673343673233 0.028718947331738815 0.1088673343673233 0.028718947331738815 0.1088673343673233 0.028718947331738815
5500000000.0 0.126847912060341 0.023068180580344717 0.126847912060341 0.023068180580344717 0.126847912060341 0.023068180580344717 0.126847912060341 0.023068180580344717
5550000000.0 0.11894998377503685 0.014647595175583512 0.11894998377503685 0.014647595175583512 0.11894998377503685 0.014647595175583512 0.11894998377503685 0.014647595175583512
5600000000.0 0.12122040180912227 -0.009885530502781337 0.12122040180912227 -0.009885530502781337 0.12122040180912227 -0.009885530502781337 0.12122040180912227 -0.009885530502781337
5650000000.0 0.12556575601260536 -0.01320281138301447 0.12556575601260536 -0.01320281138301447 0.12556575601260536 -0.01320281138301447 0.12556575601260536 -0.01320281138301447
5700000000.0 0.11298311598348809 -0.030775705618749465 0.11298311598348809 -0.030775705618749465 0.11298311598348809 -0.030775705618749465 0.11298311598348809 -0.030775705618749465
5750000000.0 0.11882878578921685 -0.04382749267142029 0.11882878578921685 -0.04382749267142029 0.11882878578921685 -0.04382749267142029 0.11882878578921685 -0.04382749267142029
5800000000.0 0.1059673031684066 -0.05330102854619609 0.1059673031684066 -0.05330102854619609 0.1059673031684066 -0.05330102854619609 0.1059673031684066 -0.05330102854619609
5850000000.0 0.10313755091404016 -0.06483317936089994 0.10313755091404016 -0.06483317936089994 0.10313755091404016 -0.06483317936089994 0.10313755091404016 -0.06483317936089994
5900000000.0 0.09247380592801917 -0.07996479101178645 0.09247380592801917 -0.07996479101178645 0.09247380592801917 -0.07996479101178645 0.09247380592801917 -0.07996479101178645
5950000000.0 0.09202175425014344 -0.0790941053527894 0.09202175425014344 -0.0790941053527894 0.09202175425014344 -0.0790941053527894 0.09202175425014344 -0.0790941053527894
6000000000.0 0.06873697958623286 -0.09453271944126256 0.06873697958623286 -0.09453271944126256 0.06873697958623286 -0.09453271944126256 0.06873697958623286 -0.09453271944126256
