! Created with skrf 2.0.0 (http://scikit-rf.org).
# Hz S RI R 50.0 
!freq ReS11 ImS11
!
100000000.0 0.7965343045789436 -0.3748139563032062
150000000.0 0.6774543991857681 -0.5231136733890558
200000000.0 0.535092351058051 -0.6355253421570779
250000000.0 0.37281105202285675 -0.7009259865375059
300000000.0 0.21097412469229665 -0.7284264357535359
350000000.0 0.05806588112683942 -0.712110748666915
400000000.0 -0.07956523465504352 -0.6688472025380657
450000000.0 -0.19065188956654208 -0.5972366856912529
500000000.0 -0.28061212508569894 -0.5128266843773247
550000000.0 -0.33970079700588085 -0.4196472951057069
600000000.0 -0.37813119952299823 -0.32259737201989397
650000000.0 -0.3917060397999669 -0.23392239027440206
700000000.0 -0.3887095107876518 -0.14849528358832154
750000000.0 -0.373407444806677 -0.07818339641090966
800000000.0 -0.347295324610853 -0.014163394764905232
850000000.0 -0.31848658351198267 0.036454901162097805
900000000.0 -0.2812488860351618 0.08255304581596996
950000000.0 -0.2425280971192986 0.12010045663717944
1000000000.0 -0.19476095352894632 0.1482163027102492
1050000000.0 -0.14685731515484535 0.16731614928746044
1100000000.0 -0.09564120666112216 0.1715597664446382
1150000000.0 -0.04801649659245967 0.16793608876447605
1200000000.0 -0.005379504984588299 0.15016527987173448
1250000000.0 0.03236750037596906 0.1275776052566296
1300000000.0 0.05924024698903457 0.0948941366786025
1350000000.0 0.0805675085512015 0.05928083080729116
1400000000.0 0.08816084076783114 0.020416595929216116
1450000000.0 0.09005262036038601 -0.020160583310047112
1500000000.0 0.07801560305812849 -0.05842338620849688
1550000000.0 0.05949564898482263 -0.09576310833591402
1600000000.0 0.03055443905360232 -0.12482230901181335
1650000000.0 -0.006286317195233522 -0.15097100276894987
1700000000.0 -0.0489642376464338 -0.16490990799885974
1750000000.0 -0.09887960766354337 -0.17199142804447348
1800000000.0 -0.14817457884340157 -0.16601869533389482
1850000000.0 -0.2028078664312839 -0.14807490158011655
1900000000.0 -0.2511390457350056 -0.11859785304017174
1950000000.0 -0.29943027548975476 -0.07393258196848049
2000000000.0 -0.3378663301072229 -0.020695714765890615
2050000000.0 -0.36767328716743847 0.04848238369544596
2100000000.0 -0.3845166711368516 0.12405254443185654
2150000000.0 -0.3829719266002158 0.210826936173062
2200000000.0 -0.36565280118952675 0.2994884188094362
2250000000.0 -0.32260694045996485 0.3904290993906863
2300000000.0 -0.2620571565858146 0.4776967892986158
2350000000.0 -0.17453619044986918 0.5516388695673213
2400000000.0 -0.0682101030815126 0.611816011728551
2450000000.0 0.05803035067123893 0.6446771888109384
2500000000.0 0.19767698958716864 0.6528141309427343
2550000000.0 0.33873600918799507 0.6226620942573488
2600000000.0 0.4771261701902002 0.5604576045306368
2650000000.0 0.5990877720882976 0.458644159379807
2700000000.0 0.6975923379387878 0.32979639965046176
2750000000.0 0.7586654181276024 0.17647890502206595
2800000000.0 0.7837634801145082 0.013516945469497043
2850000000.0 0.7617019486709374 -0.14985020458740037
2900000000.0 0.7068238132218181 -0.3031973201443221
2950000000.0 0.6154928227355464 -0.4314044121862982
3000000000.0 0.5019971539370446 -0.5341736979328681
3050000000.0 0.3731863320355082 -0.6005331062931712
3100000000.0 0.23862825719540304 -0.6381671568855459
3150000000.0 0.10852713378488615 -0.64128062076303
3200000000.0 -0.015337948734392372 -0.6196324693343241
3250000000.0 -0.120152030963736 -0.5759426313701485
3300000000.0 -0.21200500154581464 -0.5134812380170705
3350000000.0 -0.28118692855124483 -0.4421940582311058
3400000000.0 -0.3321336486171673 -0.35774683671244606
3450000000.0 -0.3642600989417333 -0.2805148290530343
3500000000.0 -0.379322786167098 -0.196437740354393
3550000000.0 -0.3797253069517582 -0.12104301394343477
3600000000.0 -0.36326346164864165 -0.04968184856656007
3650000000.0 -0.33910853638361815 0.011561513355458792
3700000000.0 -0.302363681703919 0.06303288268564473
3750000000.0 -0.26258851081695656 0.10470786108850597
3800000000.0 -0.2157929021520621 0.13344522862805008
3850000000.0 -0.16909162138890824 0.153746711175026
3900000000.0 -0.12154458116270038 0.15983304172270799
3950000000.0 -0.07659958046236576 0.15954879678493228
4000000000.0 -0.037097410333711445 0.1471025929217432
4050000000.0 -0.0005120802282155931 0.1294200341207073
4100000000.0 0.02657625477037071 0.1033634190106719
4150000000.0 0.049306531336066425 0.07295093352588718
4200000000.0 0.06051397899963495 0.03986947049076466
4250000000.0 0.06568945262351354 0.003676738821962041
4300000000.0 0.060088995097787576 -0.030128102054097543
4350000000.0 0.046441766859607055 -0.06472730457467296
4400000000.0 0.02460822175784298 -0.09296260519824702
4450000000.0 -0.006013825700189 -0.11822536664603729
4500000000.0 -0.041559296877379456 -0.13398549629329612
4550000000.0 -0.08425191696047744 -0.14378140633726255
4600000000.0 -0.12789762720257966 -0.14315866616466155
4650000000.0 -0.17615580929382288 -0.1320267071134736
4700000000.0 -0.22165059301876236 -0.1098831472612464
4750000000.0 -0.2670567006304995 -0.07523541037235822
4800000000.0 -0.30466938649914144 -0.0303147807009657
4850000000.0 -0.33510693704383965 0.02756441763553138
4900000000.0 -0.35601346583878546 0.09261081589997225
4950000000.0 -0.3618466428940622 0.167913501903259
5000000000.0 -0.35494208790932674 0.24801401400992598
5050000000.0 -0.32674896142954774 0.3294356663475096
5100000000.0 -0.2817080231666805 0.4110592166676034
5150000000.0 -0.21476463026211234 0.48428198917976595
5200000000.0 -0.12887791522825562 0.5484078835395119
5250000000.0 -0.02585740587625817 0.5927604052233656
5300000000.0 0.0924925694364939 0.6172971710047552
5350000000.0 0.2186428659234573 0.612976092584079
5400000000.0 0.34854011076038266 0.5794167077868203
5450000000.0 0.47003136076760277 0.513505278112908
5500000000.0 0.5778634360461284 0.41825867363503394
5550000000.0 0.6599400490712438 0.29668640016299985
5600000000.0 0.7126929721817573 0.15663869570645705
5650000000.0 0.7285509075928445 0.008385439521730563
5700000000.0 0.7102311981913639 -0.14001464914454415
5750000000.0 0.6551766437773813 -0.27624946295689873
5800000000.0 0.5720671493633677 -0.393401320717632
5850000000.0 0.4695278653719312 -0.4824673166859923
5900000000.0 0.350865264007753 -0.5453675532274587
5950000000.0 0.23145356646613735 -0.5762976561391693
6000000000.0 0.11021039825957545 -0.5803997647717848
