! Created with skrf 2.0.0 (http://scikit-rf.org).
# Hz S RI R 50.0 
!freq ReS11 ImS11 ReS21 ImS21 ReS12 ImS12 ReS22 ImS22
100000000.0 0.9784779142050166 -0.21662520129344554 0.9784779142050166 -0.21662520129344554 0.9784779142050166 -0.21662520129344554 0.9784779142050166 -0.21662520129344554
150000000.0 0.9406968216189903 -0.31291741989563204 0.9406968216189903 -0.31291741989563204 0.9406968216189903 -0.31291741989563204 0.9406968216189903 -0.31291741989563204
200000000.0 0.9091877371364793 -0.42139963527810914 0.9091877371364793 -0.42139963527810914 0.9091877371364793 -0.42139963527810914 0.9091877371364793 -0.42139963527810914
250000000.0 0.8552146502348829 -0.5058367970912938 0.8552146502348829 -0.5058367970912938 0.8552146502348829 -0.5058367970912938 0.8552146502348829 -0.5058367970912938
300000000.0 0.7953935704400444 -0.6035449919195325 0.7953935704400444 -0.6035449919195325 0.7953935704400444 -0.6035449919195325 0.7953935704400444 -0.6035449919195325
350000000.0 0.7292362995361114 -0.6764164863059058 0.7292362995361114 -0.6764164863059058 0.7292362995361114 -0.6764164863059058 0.7292362995361114 -0.6764164863059058
400000000.0 0.6426538244333302 -0.7556231124562196 0.6426538244333302 -0.7556231124562196 0.6426538244333302 -0.7556231124562196 0.6426538244333302 -0.7556231124562196
450000000.0 0.5667566612558156 -0.8243083945517904 0.5667566612558156 -0.8243083945517904 0.5667566612558156 -0.8243083945517904 0.5667566612558156 -0.8243083945517904
500000000.0 0.46477522516024683 -0.8718156949329611 0.46477522516024683 -0.8718156949329611 0.46477522516024683 -0.8718156949329611 0.46477522516024683 -0.8718156949329611
550000000.0 0.376153042211473 -0.9268887471794145 0.376153042211473 -0.9268887471794145 0.376153042211473 -0.9268887471794145 0.376153042211473 -0.9268887471794145
600000000.0 0.2682742424169866 -0.9475252879483281 0.2682742424169866 -0.9475252879483281 0.2682742424169866 -0.9475252879483281 0.2682742424169866 -0.9475252879483281
650000000.0 0.1693530884016541 -0.9834369988880031 0.1693530884016541 -0.9834369988880031 0.1693530884016541 -0.9834369988880031 0.1693530884016541 -0.9834369988880031
700000000.0 0.06016130663607525 -0.9806967726636906 0.06016130663607525 -0.9806967726636906 0.06016130663607525 -0.9806967726636906 0.06016130663607525 -0.9806967726636906
750000000.0 -0.04799479398529365 -0.9943644838655257 -0.04799479398529365 -0.9943644838655257 -0.04799479398529365 -0.9943644838655257 -0.04799479398529365 -0.9943644838655257
800000000.0 -0.14958871196538034 -0.9688539090141158 -0.14958871196538034 -0.9688539090141158 -0.14958871196538034 -0.9688539090141158 -0.14958871196538034 -0.9688539090141158
850000000.0 -0.2620297744100984 -0.9558173017622208 -0.2620297744100984 -0.9558173017622208 -0.2620297744100984 -0.9558173017622208 -0.2620297744100984 -0.9558173017622208
900000000.0 -0.3551152615400806 -0.9157471656084103 -0.3551152615400806 -0.9157471656084103 -0.3551152615400806 -0.9157471656084103 -0.3551152615400806 -0.9157471656084103
950000000.0 -0.46136868270146236 -0.867815194122521 -0.46136868270146236 -0.867815194122521 -0.46136868270146236 -0.867815194122521 -0.46136868270146236 -0.867815194122521
1000000000.0 -0.545464850365504 -0.820128793006321 -0.545464850365504 -0.820128793006321 -0.545464850365504 -0.820128793006321 -0.545464850365504 -0.820128793006321
1050000000.0 -0.6331374631556941 -0.7409523616866702 -0.6331374631556941 -0.7409523616866702 -0.6331374631556941 -0.7409523616866702 -0.6331374631556941 -0.7409523616866702
1100000000.0 -0.7089313923216011 -0.6841858965441774 -0.7089313923216011 -0.6841858965441774 -0.7089313923216011 -0.6841858965441774 -0.7089313923216011 -0.6841858965441774
1150000000.0 -0.7725887588226339 -0.5875418555772535 -0.7725887588226339 -0.5875418555772535 -0.7725887588226339 -0.5875418555772535 -0.7725887588226339 -0.5875418555772535
1200000000.0 -0.8389218331662324 -0.5149610805034295 -0.8389218331662324 -0.5149610805034295 -0.8389218331662324 -0.5149610805034295 -0.8389218331662324 -0.5149610805034295
1250000000.0 -0.8779476337143332 -0.408978395346001 -0.8779476337143332 -0.408978395346001 -0.8779476337143332 -0.408978395346001 -0.8779476337143332 -0.408978395346001
1300000000.0 -0.9292975441157294 -0.3169494221925879 -0.9292975441157294 -0.3169494221925879 -0.9292975441157294 -0.3169494221925879 -0.9292975441157294 -0.3169494221925879
1350000000.0 -0.9417506184195074 -0.2106200585872257 -0.9417506184195074 -0.2106200585872257 -0.9417506184195074 -0.2106200585872257 -0.9417506184195074 -0.2106200585872257
1400000000.0 -0.9731408814829716 -0.10915751017311175 -0.9731408814829716 -0.10915751017311175 -0.9731408814829716 -0.10915751017311175 -0.9731408814829716 -0.10915751017311175
1450000000.0 -0.9628271656817685 -0.005812622281237004 -0.9628271656817685 -0.005812622281237004 -0.9628271656817685 -0.005812622281237004 -0.9628271656817685 -0.005812622281237004
1500000000.0 -0.9664033638731849 0.10715414607617102 -0.9664033638731849 0.10715414607617102 -0.9664033638731849 0.10715414607617102 -0.9664033638731849 0.10715414607617102
1550000000.0 -0.942783464221683 0.20139383035320974 -0.942783464221683 0.20139383035320974 -0.942783464221683 0.20139383035320974 -0.942783464221683 0.20139383035320974
1600000000.0 -0.9111081747447698 0.3141832700139793 -0.9111081747447698 0.3141832700139793 -0.9111081747447698 0.3141832700139793 -0.9111081747447698 0.3141832700139793
1650000000.0 -0.8784021918026755 0.3994900063009123 -0.8784021918026755 0.3994900063009123 -0.8784021918026755 0.3994900063009123 -0.8784021918026755 0.3994900063009123
1700000000.0 -0.8223748974553632 0.498748647827395 -0.8223748974553632 0.498748647827395 -0.8223748974553632 0.498748647827395 -0.8223748974553632 0.498748647827395
1750000000.0 -0.7722017895750724 0.581476630774182 -0.7722017895750724 0.581476630774182 -0.7722017895750724 0.581476630774182 -0.7722017895750724 0.581476630774182
1800000000.0 -0.6885935308632297 0.6586234058758078 -0.6885935308632297 0.6586234058758078 -0.6885935308632297 0.6586234058758078 -0.6885935308632297 0.6586234058758078
1850000000.0 -0.6304117110864199 0.7269816360326307 -0.6304117110864199 0.7269816360326307 -0.6304117110864199 0.7269816360326307 -0.6304117110864199 0.7269816360326307
1900000000.0 -0.5336088250133431 0.7880143028269845 -0.5336088250133431 0.7880143028269845 -0.5336088250133431 0.7880143028269845 -0.5336088250133431 0.7880143028269845
1950000000.0 -0.45270769583156273 0.8499857357788317 -0.45270769583156273 0.8499857357788317 -0.45270769583156273 0.8499857357788317 -0.45270769583156273 0.8499857357788317
2000000000.0 -0.3503006047510962 0.8800812471175535 -0.3503006047510962 0.8800812471175535 -0.3503006047510962 0.8800812471175535 -0.3503006047510962 0.8800812471175535
2050000000.0 -0.257968227510942 0.9263768354382668 -0.257968227510942 0.9263768354382668 -0.257968227510942 0.9263768354382668 -0.257968227510942 0.9263768354382668
2100000000.0 -0.15467239299064853 0.9348859434297335 -0.15467239299064853 0.9348859434297335 -0.15467239299064853 0.9348859434297335 -0.15467239299064853 0.9348859434297335
2150000000.0 -0.05218816115411201 0.9557093862656967 -0.05218816115411201 0.9557093862656967 -0.05218816115411201 0.9557093862656967 -0.05218816115411201 0.9557093862656967
2200000000.0 0.045834637588892675 0.9480859840133521 0.045834637588892675 0.9480859840133521 0.045834637588892675 0.9480859840133521 0.045834637588892675 0.9480859840133521
2250000000.0 0.1593225508365211 0.9357103565491112 0.1593225508365211 0.9357103565491112 0.1593225508365211 0.9357103565491112 0.1593225508365211 0.9357103565491112
2300000000.0 0.24710515187255613 0.9177114184654624 0.24710515187255613 0.9177114184654624 0.24710515187255613 0.9177114184654624 0.24710515187255613 0.9177114184654624
2350000000.0 0.34980542540789494 0.8830845905820585 0.34980542540789494 0.8830845905820585 0.34980542540789494 0.8830845905820585 0.34980542540789494 0.8830845905820585
2400000000.0 0.4402921165851594 0.8469099380752388 0.4402921165851594 0.8469099380752388 0.4402921165851594 0.8469099380752388 0.4402921165851594 0.8469099380752388
2450000000.0 0.5291299860337053 0.7756589771772638 0.5291299860337053 0.7756589771772638 0.5291299860337053 0.7756589771772638 0.5291299860337053 0.7756589771772638
2500000000.0 0.6067153135917228 0.731337874509159 0.6067153135917228 0.731337874509159 0.6067153135917228 0.731337874509159 0.6067153135917228 0.731337874509159
2550000000.0 0.6783087849169644 0.6511823243406301 0.6783087849169644 0.6511823243406301 0.6783087849169644 0.6511823243406301 0.6783087849169644 0.6511823243406301
2600000000.0 0.7480494209022358 0.5872085105560676 0.7480494209022358 0.5872085105560676 0.7480494209022358 0.5872085105560676 0.7480494209022358 0.5872085105560676
2650000000.0 0.8001962569121474 0.4880760772809278 0.8001962569121474 0.4880760772809278 0.8001962569121474 0.4880760772809278 0.8001962569121474 0.4880760772809278
2700000000.0 0.8577844860909907 0.4113723282782779 0.8577844860909907 0.4113723282782779 0.8577844860909907 0.4113723282782779 0.8577844860909907 0.4113723282782779
2750000000.0 0.8853780837572625 0.3085433890626243 0.8853780837572625 0.3085433890626243 0.8853780837572625 0.3085433890626243 0.8853780837572625 0.3085433890626243
2800000000.0 0.9246389198342393 0.2211533626408316 0.9246389198342393 0.2211533626408316 0.9246389198342393 0.2211533626408316 0.9246389198342393 0.2211533626408316
2850000000.0 0.9296611424150959 0.11776279642275429 0.9296611424150959 0.11776279642275429 0.9296611424150959 0.11776279642275429 0.9296611424150959 0.11776279642275429
2900000000.0 0.9458610298373679 0.00828213835529099 0.9458610298373679 0.00828213835529099 0.9458610298373679 0.00828213835529099 0.9458610298373679 0.00828213835529099
2950000000.0 0.9411534048578396 -0.08596391570630296 0.9411534048578396 -0.08596391570630296 0.9411534048578396 -0.08596391570630296 0.9411534048578396 -0.08596391570630296
3000000000.0 0.9251550060214474 -0.1875449821538395 0.9251550060214474 -0.1875449821538395 0.9251550060214474 -0.1875449821538395 0.9251550060214474 -0.1875449821538395
3050000000.0 0.9004305312478503 -0.2764920891246684 0.9004305312478503 -0.2764920891246684 0.9004305312478503 -0.2764920891246684 0.9004305312478503 -0.2764920891246684
3100000000.0 0.8575340148316715 -0.3789231063918042 0.8575340148316715 -0.3789231063918042 0.8575340148316715 -0.3789231063918042 0.8575340148316715 -0.3789231063918042
3150000000.0 0.8228777268893965 -0.464244745838686 0.8228777268893965 -0.464244745838686 0.8228777268893965 -0.464244745838686 0.8228777268893965 -0.464244745838686
3200000000.0 0.7536519176297687 -0.5503239690593463 0.7536519176297687 -0.5503239690593463 0.7536519176297687 -0.5503239690593463 0.7536519176297687 -0.5503239690593463
3250000000.0 0.7014830701028755 -0.6358676343340911 0.7014830701028755 -0.6358676343340911 0.7014830701028755 -0.6358676343340911 0.7014830701028755 -0.6358676343340911
3300000000.0 0.6233943459737159 -0.6975892140166794 0.6233943459737159 -0.6975892140166794 0.6233943459737159 -0.6975892140166794 0.6233943459737159 -0.6975892140166794
3350000000.0 0.5589375360324212 -0.7645122350096867 0.5589375360324212 -0.7645122350096867 0.5589375360324212 -0.7645122350096867 0.5589375360324212 -0.7645122350096867
3400000000.0 0.46053711934925046 -0.813239820859184 0.46053711934925046 -0.813239820859184 0.46053711934925046 -0.813239820859184 0.46053711934925046 -0.813239820859184
3450000000.0 0.3830887212118261 -0.8668793124255881 0.3830887212118261 -0.8668793124255881 0.3830887212118261 -0.8668793124255881 0.3830887212118261 -0.8668793124255881
3500000000.0 0.28305973425168335 -0.8959729310892043 0.28305973425168335 -0.8959729310892043 0.28305973425168335 -0.8959729310892043 0.28305973425168335 -0.8959729310892043
3550000000.0 0.1791597466528317 -0.9255423380195359 0.1791597466528317 -0.9255423380195359 0.1791597466528317 -0.9255423380195359 0.1791597466528317 -0.9255423380195359
3600000000.0 0.09192223853140162 -0.9347513675698962 0.09192223853140162 -0.9347513675698962 0.09192223853140162 -0.9347513675698962 0.09192223853140162 -0.9347513675698962
3650000000.0 -0.026157557282663325 -0.9368009660823865 -0.026157557282663325 -0.9368009660823865 -0.026157557282663325 -0.9368009660823865 -0.026157557282663325 -0.9368009660823865
3700000000.0 -0.11139984291564625 -0.9366870704573006 -0.11139984291564625 -0.9366870704573006 -0.11139984291564625 -0.9366870704573006 -0.11139984291564625 -0.9366870704573006
3750000000.0 -0.22075398810134608 -0.905775112728924 -0.22075398810134608 -0.905775112728924 -0.22075398810134608 -0.905775112728924 -0.22075398810134608 -0.905775112728924
3800000000.0 -0.30651137184190297 -0.8933475025264338 -0.30651137184190297 -0.8933475025264338 -0.30651137184190297 -0.8933475025264338 -0.30651137184190297 -0.8933475025264338
3850000000.0 -0.4012121385769762 -0.8448419641408472 -0.4012121385769762 -0.8448419641408472 -0.4012121385769762 -0.8448419641408472 -0.4012121385769762 -0.8448419641408472
3900000000.0 -0.48979076438968927 -0.8089980481172869 -0.48979076438968927 -0.8089980481172869 -0.48979076438968927 -0.8089980481172869 -0.48979076438968927 -0.8089980481172869
3950000000.0 -0.5744668073772119 -0.7334156623518228 -0.5744668073772119 -0.7334156623518228 -0.5744668073772119 -0.7334156623518228 -0.5744668073772119 -0.7334156623518228
4000000000.0 -0.643855939055969 -0.6955522930625118 -0.643855939055969 -0.6955522930625118 -0.643855939055969 -0.6955522930625118 -0.643855939055969 -0.6955522930625118
4050000000.0 -0.7163226911988352 -0.6013667764278525 -0.7163226911988352 -0.6013667764278525 -0.7163226911988352 -0.6013667764278525 -0.7163226911988352 -0.6013667764278525
4100000000.0 -0.781589695838514 -0.5352650056204281 -0.781589695838514 -0.5352650056204281 -0.781589695838514 -0.5352650056204281 -0.781589695838514 -0.5352650056204281
4150000000.0 -0.8255131342340969 -0.4413015378261226 -0.8255131342340969 -0.4413015378261226 -0.8255131342340969 -0.4413015378261226 -0.8255131342340969 -0.4413015378261226
4200000000.0 -0.8782103110045772 -0.35919635537167105 -0.8782103110045772 -0.35919635537167105 -0.8782103110045772 -0.35919635537167105 -0.8782103110045772 -0.35919635537167105
4250000000.0 -0.9002052632068441 -0.2664558377589498 -0.9002052632068441 -0.2664558377589498 -0.9002052632068441 -0.2664558377589498 -0.9002052632068441 -0.2664558377589498
4300000000.0 -0.9248868002093297 -0.14422803561705716 -0.9248868002093297 -0.14422803561705716 -0.9248868002093297 -0.14422803561705716 -0.9248868002093297 -0.14422803561705716
4350000000.0 -0.941422426695818 -0.06837968394264053 -0.941422426695818 -0.06837968394264053 -0.941422426695818 -0.06837968394264053 -0.941422426695818 -0.06837968394264053
4400000000.0 -0.9342053146532201 0.046458106697533794 -0.9342053146532201 0.046458106697533794 -0.9342053146532201 0.046458106697533794 -0.9342053146532201 0.046458106697533794
4450000000.0 -0.9343830153891086 0.13877810781551028 -0.9343830153891086 0.13877810781551028 -0.9343830153891086 0.13877810781551028 -0.9343830153891086 0.13877810781551028
4500000000.0 -0.90640794824478 0.23782129292778575 -0.90640794824478 0.23782129292778575 -0.90640794824478 0.23782129292778575 -0.90640794824478 0.23782129292778575
4550000000.0 -0.8793314675131153 0.3495138670503888 -0.8793314675131153 0.3495138670503888 -0.8793314675131153 0.3495138670503888 -0.8793314675131153 0.3495138670503888
4600000000.0 -0.8309609834063798 0.4280377323538274 -0.8309609834063798 0.4280377323538274 -0.8309609834063798 0.4280377323538274 -0.8309609834063798 0.4280377323538274
4650000000.0 -0.7959773799221055 0.5105877496905866 -0.7959773799221055 0.5105877496905866 -0.7959773799221055 0.5105877496905866 -0.7959773799221055 0.5105877496905866
4700000000.0 -0.7216460772878073 0.5937535076304964 -0.7216460772878073 0.5937535076304964 -0.7216460772878073 0.5937535076304964 -0.7216460772878073 0.5937535076304964
4750000000.0 -0.6689288676243772 0.670339801173321 -0.6689288676243772 0.670339801173321 -0.6689288676243772 0.670339801173321 -0.6689288676243772 0.670339801173321
4800000000.0 -0.5862169403112634 0.7287132762820017 -0.5862169403112634 0.7287132762820017 -0.5862169403112634 0.7287132762820017 -0.5862169403112634 0.7287132762820017
4850000000.0 -0.49867611673981993 0.7988181227927049 -0.49867611673981993 0.7988181227927049 -0.49867611673981993 0.7988181227927049 -0.49867611673981993 0.7988181227927049
4900000000.0 -0.43036146929266367 0.8336473140722831 -0.43036146929266367 0.8336473140722831 -0.43036146929266367 0.8336473140722831 -0.43036146929266367 0.8336473140722831
4950000000.0 -0.329238574818898 0.8867623743121558 -0.329238574818898 0.8867623743121558 -0.329238574818898 0.8867623743121558 -0.329238574818898 0.8867623743121558
5000000000.0 -0.23617081331213322 0.9155557955369426 -0.23617081331213322 0.9155557955369426 -0.23617081331213322 0.9155557955369426 -0.23617081331213322 0.9155557955369426
5050000000.0 -0.1276017341212454 0.9263715279695776 -0.1276017341212454 0.9263715279695776 -0.1276017341212454 0.9263715279695776 -0.1276017341212454 0.9263715279695776
5100000000.0 -0.0313497833855574 0.9402396640113604 -0.0313497833855574 0.9402396640113604 -0.0313497833855574 0.9402396640113604 -0.0313497833855574 0.9402396640113604
5150000000.0 0.06525292124676071 0.937142926615706 0.06525292124676071 0.937142926615706 0.06525292124676071 0.937142926615706 0.06525292124676071 0.937142926615706
5200000000.0 0.17321913922561855 0.9265851252320908 0.17321913922561855 0.9265851252320908 0.17321913922561855 0.9265851252320908 0.17321913922561855 0.9265851252320908
5250000000.0 0.26721647414117766 0.8979527844566528 0.26721647414117766 0.8979527844566528 0.26721647414117766 0.8979527844566528 0.26721647414117766 0.8979527844566528
5300000000.0 0.3545951375852484 0.8771704373187881 0.3545951375852484 0.8771704373187881 0.3545951375852484 0.8771704373187881 0.3545951375852484 0.8771704373187881
5350000000.0 0.45032925728837997 0.8160139304817658 0.45032925728837997 0.8160139304817658 0.45032925728837997 0.8160139304817658 0.45032925728837997 0.8160139304817658
5400000000.0 0.5463512320476661 0.7682780959135037 0.5463512320476661 0.7682780959135037 0.5463512320476661 0.7682780959135037 0.5463512320476661 0.7682780959135037
5450000000.0 0.5969719465522222 0.7084007766493355 0.5969719465522222 0.7084007766493355 0.5969719465522222 0.7084007766493355 0.5969719465522222 0.7084007766493355
5500000000.0 0.691831491226988 0.639787504000986 0.691831491226988 0.639787504000986 0.691831491226988 0.639787504000986 0.691831491226988 0.639787504000986
5550000000.0 0.7474994544304058 0.5721683349486856 0.7474994544304058 0.5721683349486856 0.7474994544304058 0.5721683349486856 0.7474994544304058 0.5721683349486856
5600000000.0 0.808519650012657 0.46888715610373755 0.808519650012657 0.46888715610373755 0.808519650012657 0.46888715610373755 0.808519650012657 0.46888715610373755
5650000000.0 0.8558801656350788 0.39566309855737486 0.8558801656350788 0.39566309855737486 0.8558801656350788 0.39566309855737486 0.8558801656350788 0.39566309855737486
5700000000.0 0.889596012596108 0.2933218800254342 0.889596012596108 0.2933218800254342 0.889596012596108 0.2933218800254342 0.889596012596108 0.2933218800254342
5750000000.0 0.9182333102403208 0.1967028398299624 0.9182333102403208 0.1967028398299624 0.9182333102403208 0.1967028398299624 0.9182333102403208 0.1967028398299624
5800000000.0 0.9338108254567538 0.09713112813437093 0.9338108254567538 0.09713112813437093 0.9338108254567538 0.09713112813437093 0.9338108254567538 0.09713112813437093
5850000000.0 0.9395442751485742 0.0007987290462367147 0.9395442751485742 0.0007987290462367147 0.9395442751485742 0.0007987290462367147 0.9395442751485742 0.0007987290462367147
5900000000.0 0.9317103090310257 -0.10863091392629581 0.9317103090310257 -0.10863091392629581 0.9317103090310257 -0.10863091392629581 0.9317103090310257 -0.10863091392629581
5950000000.0 0.9290056228670371 -0.1862991660625945 0.9290056228670371 -0.1862991660625945 0.9290056228670371 -0.1862991660625945 0.9290056228670371 -0.1862991660625945
6000000000.0 0.88112212198152 -0.30151139746410904 0.88112212198152 -0.30151139746410904 0.88112212198152 -0.30151139746410904 0.88112212198152 -0.30151139746410904
