! Created with skrf 2.0.0 (http://scikit-rf.org).
# Hz S RI R 50.0 
!freq ReS11 ImS11
!
100000000.0 -0.2224998511783321 0.05487393034296358
150000000.0 -0.21405595290874224 0.08325753501416498
200000000.0 -0.20092860655736441 0.10777926337894743
250000000.0 -0.18609184049830915 0.13265190478169703
300000000.0 -0.16851235064576212 0.152590983315828
350000000.0 -0.1476637589942934 0.1722379084726976
400000000.0 -0.1267767835708076 0.18746741930599864
450000000.0 -0.10160923221598815 0.20113905106478147
500000000.0 -0.07771487354883162 0.2111587188149102
550000000.0 -0.050279446568552495 0.21709006750934054
600000000.0 -0.024536413095676782 0.22120994508393055
650000000.0 0.002533449689845324 0.21898529292278182
700000000.0 0.027554176516415733 0.21593131379018132
750000000.0 0.05012674325370368 0.2063782353852179
800000000.0 0.0703598464091053 0.19770655293690462
850000000.0 0.08597810963782768 0.18654822536885243
900000000.0 0.10221768861430017 0.17879535529512833
950000000.0 0.11722412233141787 0.17080477866789434
1000000000.0 0.13656673516308263 0.16146274446689016
1050000000.0 0.15435668114299161 0.15022198782165472
1100000000.0 0.17352122833035022 0.13354118145615534
1150000000.0 0.1894479060892917 0.11629057099865263
1200000000.0 0.20334145608126622 0.09350130116936797
1250000000.0 0.21525556898547074 0.07189145589532354
1300000000.0 0.2223478989617136 0.046165891995681954
1350000000.0 0.22887674125525892 0.021226235880068573
1400000000.0 0.22899319450073716 -0.004792719447409314
1450000000.0 0.22935120549835122 -0.031001828747523785
1500000000.0 0.22359231722370282 -0.0560710153366913
1550000000.0 0.2172111779908996 -0.08209812795862931
1600000000.0 0.20688770829914224 -0.10477988634873196
1650000000.0 0.19379763675781025 -0.12874166000465712
1700000000.0 0.17899797062115705 -0.14845581397710045
1750000000.0 0.16018374758272858 -0.16832694129507655
1800000000.0 0.14193106560375235 -0.18484400364942027
1850000000.0 0.11884293382034428 -0.19883447105095675
1900000000.0 0.09769425762751739 -0.2109941657647907
1950000000.0 0.07234963449965698 -0.2193952874251047
2000000000.0 0.04803338626819394 -0.22720820677941114
2050000000.0 0.02203900775311979 -0.2295223590931645
2100000000.0 -0.004015166380636655 -0.23141855934115438
2150000000.0 -0.02881728668375672 -0.22801562557858993
2200000000.0 -0.05481351684944664 -0.2240236612958689
2250000000.0 -0.07818727322881266 -0.21544619941593554
2300000000.0 -0.1027513694468118 -0.20418919232034166
2350000000.0 -0.12311498044971049 -0.19164460313397513
2400000000.0 -0.14454414926415127 -0.1754505606674472
2450000000.0 -0.16227589675929377 -0.15855133773922245
2500000000.0 -0.17821066701737895 -0.13770251526282973
2550000000.0 -0.19195866956722918 -0.11815780164562452
2600000000.0 -0.20310397311620154 -0.09395173701747764
2650000000.0 -0.21269878346572968 -0.0710988885157734
2700000000.0 -0.21746736653545995 -0.046105686806126915
2750000000.0 -0.22146768197264716 -0.020924868178865047
2800000000.0 -0.2206244063284031 0.0036705808576014483
2850000000.0 -0.2200188272541877 0.027945624153576147
2900000000.0 -0.2129521048899829 0.052305317633768826
2950000000.0 -0.20554825855002037 0.07713427608161026
3000000000.0 -0.19450186688490198 0.0985340955247274
3050000000.0 -0.18096749679965313 0.1206078090217243
3100000000.0 -0.16632212694914136 0.13881951856961286
3150000000.0 -0.1476642865512349 0.15725595035644865
3200000000.0 -0.12977489858065858 0.17222584437066177
3250000000.0 -0.10753314251040164 0.18481082872852989
3300000000.0 -0.08668501376333859 0.19616130209753857
3350000000.0 -0.06270658972224914 0.20320505608981007
3400000000.0 -0.03697486446016042 0.21030079943321311
3450000000.0 -0.014590918762654982 0.2107930910736454
3500000000.0 0.00966638794782445 0.211917255503989
3550000000.0 0.0331331828517751 0.20760569364267745
3600000000.0 0.05764152824652662 0.20265012715781397
3650000000.0 0.07883980166156306 0.1940694844796808
3700000000.0 0.10167790061035553 0.18302375929066778
3750000000.0 0.12055447230085585 0.1702407822677558
3800000000.0 0.13985743368375902 0.15394909801028747
3850000000.0 0.15571064805573662 0.1377821861562554
3900000000.0 0.1708849170926084 0.11783386452196698
3950000000.0 0.182497982742992 0.09791831839909677
4000000000.0 0.19144364899548436 0.07517699640650201
4050000000.0 0.19944402381676474 0.05339515039473957
4100000000.0 0.20251962505672008 0.029560132226141237
4150000000.0 0.20545301758302792 0.00612284685963071
4200000000.0 0.20340721350620128 -0.01724516396339776
4250000000.0 0.20029958268701673 -0.04122005023535107
4300000000.0 0.19343558780156303 -0.06291650434646799
4350000000.0 0.18504854770367057 -0.08544789091713505
4400000000.0 0.17369698232367986 -0.10506876724151025
4450000000.0 0.15945228279172577 -0.12492419142927344
4500000000.0 0.14435971515617835 -0.14094257447556024
4550000000.0 0.1258411204082999 -0.15731367948094827
4600000000.0 0.10781594064028273 -0.17067924567468057
4650000000.0 0.0863332145449591 -0.18164085175749703
4700000000.0 0.06543846479672717 -0.19042713319974153
4750000000.0 0.04205823340805502 -0.19592621222856138
4800000000.0 0.01959807826705372 -0.20007412418740708
4850000000.0 -0.003666016743114142 -0.1998331548871612
4900000000.0 -0.027095129213030957 -0.19865254077876085
4950000000.0 -0.049322100018166275 -0.1935208327510007
5000000000.0 -0.07239485222988468 -0.18662101599501055
5050000000.0 -0.09249569173996063 -0.17709922626953353
5100000000.0 -0.11309188859932891 -0.16422431463445938
5150000000.0 -0.13069543262043837 -0.15088294345060654
5200000000.0 -0.14729754306656068 -0.13345526414889589
5250000000.0 -0.16216980503864703 -0.11631212150500159
5300000000.0 -0.17405202483993779 -0.09605984464030987
5350000000.0 -0.1841531312364656 -0.07630019299589125
5400000000.0 -0.1913264203283037 -0.05348613372016304
5450000000.0 -0.197127468822942 -0.030965856367451
5500000000.0 -0.19854477520078523 -0.007989878734280913
5550000000.0 -0.19901669577979397 0.01521623107039534
5600000000.0 -0.19537233011075084 0.03800690833639828
5650000000.0 -0.1899933923916017 0.060927610492723196
5700000000.0 -0.1813776336204296 0.08175808916300582
5750000000.0 -0.17055615077401806 0.10345738310196068
5800000000.0 -0.15779260620200142 0.12196054680788679
5850000000.0 -0.14208501327198417 0.14009468642188866
5900000000.0 -0.12593123018152283 0.15518370148134047
5950000000.0 -0.1063622304264923 0.16934075875311017
6000000000.0 -0.08690661121495831 0.1807880791077535
