! Created with skrf 2.0.0 (http://scikit-rf.org).
# Hz S RI R 50.0 
!freq ReS11 ImS11 ReS21 ImS21 ReS12 ImS12 ReS22 ImS22
100000000.0 0.23106339613229432 -0.052069422475785915 0.23106339613229432 -0.052069422475785915 0.23106339613229432 -0.052069422475785915 0.23106339613229432 -0.052069422475785915
150000000.0 0.21019295885550124 -0.06408006013823156 0.21019295885550124 -0.06408006013823156 0.21019295885550124 -0.06408006013823156 0.21019295885550124 -0.06408006013823156
200000000.0 0.21423842705985688 -0.09997171098976212 0.21423842705985688 -0.09997171098976212 0.21423842705985688 -0.09997171098976212 0.21423842705985688 -0.09997171098976212
250000000.0 0.19666515028039935 -0.10709737650839432 0.19666515028039935 -0.10709737650839432 0.19666515028039935 -0.10709737650839432 0.19666515028039935 -0.10709737650839432
300000000.0 0.18517677344685518 -0.13975113952778923 0.18517677344685518 -0.13975113952778923 0.18517677344685518 -0.13975113952778923 0.18517677344685518 -0.13975113952778923
350000000.0 0.17337830417067238 -0.14725509254143437 0.17337830417067238 -0.14725509254143437 0.17337830417067238 -0.14725509254143437 0.17337830417067238 -0.14725509254143437
400000000.0 0.14811862546124088 -0.17046046261102238 0.14811862546124088 -0.17046046261102238 0.14811862546124088 -0.17046046261102238 0.14811862546124088 -0.17046046261102238
450000000.0 0.1417242357205592 -0.18723157130313695 0.1417242357205592 -0.18723157130313695 0.1417242357205592 -0.18723157130313695 0.1417242357205592 -0.18723157130313695
500000000.0 0.10855751176837447 -0.19377363429103384 0.10855751176837447 -0.19377363429103384 0.10855751176837447 -0.19377363429103384 0.10855751176837447 -0.19377363429103384
550000000.0 0.09895294626212434 -0.21792610867269877 0.09895294626212434 -0.21792610867269877 0.09895294626212434 -0.21792610867269877 0.09895294626212434 -0.21792610867269877
600000000.0 0.06701950128261666 -0.2101786562536012 0.06701950128261666 -0.2101786562536012 0.06701950128261666 -0.2101786562536012 0.06701950128261666 -0.2101786562536012
650000000.0 0.049075264479804856 -0.23693265937606103 0.049075264479804856 -0.23693265937606103 0.049075264479804856 -0.23693265937606103 0.049075264479804856 -0.23693265937606103
700000000.0 0.022750332239999345 -0.22004427190906983 0.022750332239999345 -0.22004427190906983 0.022750332239999345 -0.22004427190906983 0.022750332239999345 -0.22004427190906983
750000000.0 -0.007238740822836907 -0.24206934733233373 -0.007238740822836907 -0.24206934733233373 -0.007238740822836907 -0.24206934733233373 -0.007238740822836907 -0.24206934733233373
800000000.0 -0.02645560843438492 -0.22039602122801155 -0.02645560843438492 -0.22039602122801155 -0.02645560843438492 -0.22039602122801155 -0.02645560843438492 -0.22039602122801155
850000000.0 -0.0633175404820922 -0.22841298856285025 -0.0633175404820922 -0.22841298856285025 -0.0633175404820922 -0.22841298856285025 -0.0633175404820922 -0.22841298856285025
900000000.0 -0.07440122988794437 -0.2102916728552846 -0.07440122988794437 -0.2102916728552846 -0.07440122988794437 -0.2102916728552846 -0.07440122988794437 -0.2102916728552846
950000000.0 -0.11008831229763619 -0.1987975933721767 -0.11008831229763619 -0.1987975933721767 -0.11008831229763619 -0.1987975933721767 -0.11008831229763619 -0.1987975933721767
1000000000.0 -0.11936651913293098 -0.19054944271808844 -0.11936651913293098 -0.19054944271808844 -0.11936651913293098 -0.19054944271808844 -0.11936651913293098 -0.19054944271808844
1050000000.0 -0.143866232842004 -0.16253607430714426 -0.143866232842004 -0.16253607430714426 -0.143866232842004 -0.16253607430714426 -0.143866232842004 -0.16253607430714426
1100000000.0 -0.16012040300162797 -0.16135375111595007 -0.16012040300162797 -0.16135375111595007 -0.16012040300162797 -0.16135375111595007 -0.16012040300162797 -0.16135375111595007
1150000000.0 -0.16814500530620705 -0.1255742282110679 -0.16814500530620705 -0.1255742282110679 -0.16814500530620705 -0.1255742282110679 -0.16814500530620705 -0.1255742282110679
1200000000.0 -0.19393869387312326 -0.12185738344687502 -0.19393869387312326 -0.12185738344687502 -0.19393869387312326 -0.12185738344687502 -0.19393869387312326 -0.12185738344687502
1250000000.0 -0.18612905358185428 -0.08695848876073893 -0.18612905358185428 -0.08695848876073893 -0.18612905358185428 -0.08695848876073893 -0.18612905358185428 -0.08695848876073893
1300000000.0 -0.21647414193298356 -0.07300333584627804 -0.21647414193298356 -0.07300333584627804 -0.21647414193298356 -0.07300333584627804 -0.21647414193298356 -0.07300333584627804
1350000000.0 -0.19819972709133685 -0.0476084300139983 -0.19819972709133685 -0.0476084300139983 -0.19819972709133685 -0.0476084300139983 -0.19819972709133685 -0.0476084300139983
1400000000.0 -0.22369221620828195 -0.023078960720488362 -0.22369221620828195 -0.023078960720488362 -0.22369221620828195 -0.023078960720488362 -0.22369221620828195 -0.023078960720488362
1450000000.0 -0.20444859182692454 -0.004908903388601891 -0.20444859182692454 -0.004908903388601891 -0.20444859182692454 -0.004908903388601891 -0.20444859182692454 -0.004908903388601891
1500000000.0 -0.21669799448349536 0.02890327016420487 -0.21669799448349536 0.02890327016420487 -0.21669799448349536 0.02890327016420487 -0.21669799448349536 0.02890327016420487
1550000000.0 -0.20466065474539566 0.039308603009944494 -0.20466065474539566 0.039308603009944494 -0.20466065474539566 0.039308603009944494 -0.20466065474539566 0.039308603009944494
1600000000.0 -0.19786933847886032 0.07469049948785404 -0.19786933847886032 0.07469049948785404 -0.19786933847886032 0.07469049948785404 -0.19786933847886032 0.07469049948785404
1650000000.0 -0.19542749241183818 0.08434468643168928 -0.19542749241183818 0.08434468643168928 -0.19542749241183818 0.08434468643168928 -0.19542749241183818 0.08434468643168928
1700000000.0 -0.17471007897007385 0.11295565587771736 -0.17471007897007385 0.11295565587771736 -0.17471007897007385 0.11295565587771736 -0.17471007897007385 0.11295565587771736
1750000000.0 -0.1752778097625484 0.13030174078351908 -0.1752778097625484 0.13030174078351908 -0.1752778097625484 0.13030174078351908 -0.1752778097625484 0.13030174078351908
1800000000.0 -0.14193576535683716 0.1419723720785192 -0.14193576535683716 0.1419723720785192 -0.14193576535683716 0.1419723720785192 -0.14193576535683716 0.1419723720785192
1850000000.0 -0.14297158328115178 0.16440015247285106 -0.14297158328115178 0.16440015247285106 -0.14297158328115178 0.16440015247285106 -0.14297158328115178 0.16440015247285106
1900000000.0 -0.1089287180465289 0.16763411888210009 -0.1089287180465289 0.16763411888210009 -0.1089287180465289 0.16763411888210009 -0.1089287180465289 0.16763411888210009
1950000000.0 -0.09869280287617098 0.19654767499231376 -0.09869280287617098 0.19654767499231376 -0.09869280287617098 0.19654767499231376 -0.09869280287617098 0.19654767499231376
2000000000.0 -0.07195518098897816 0.18733053610287148 -0.07195518098897816 0.18733053610287148 -0.07195518098897816 0.18733053610287148 -0.07195518098897816 0.18733053610287148
2050000000.0 -0.05135960823904087 0.2109909713750696 -0.05135960823904087 0.2109909713750696 -0.05135960823904087 0.2109909713750696 -0.05135960823904087 0.2109909713750696
2100000000.0 -0.031676369744462064 0.20137876659611728 -0.031676369744462064 0.20137876659611728 -0.031676369744462064 0.20137876659611728 -0.031676369744462064 0.20137876659611728
2150000000.0 -0.002837728923953373 0.21379075723793775 -0.002837728923953373 0.21379075723793775 -0.002837728923953373 0.21379075723793775 -0.002837728923953373 0.21379075723793775
2200000000.0 0.012895222397682876 0.20750417067836072 0.012895222397682876 0.20750417067836072 0.012895222397682876 0.20750417067836072 0.012895222397682876 0.20750417067836072
2250000000.0 0.04659220726339813 0.2046684707818029 0.04659220726339813 0.2046684707818029 0.04659220726339813 0.2046684707818029 0.04659220726339813 0.2046684707818029
2300000000.0 0.05816774529596005 0.2033079113583033 0.05816774529596005 0.2033079113583033 0.05816774529596005 0.2033079113583033 0.05816774529596005 0.2033079113583033
2350000000.0 0.08838360798135156 0.19042346879942848 0.08838360798135156 0.19042346879942848 0.08838360798135156 0.19042346879942848 0.08838360798135156 0.19042346879942848
2400000000.0 0.1054337009501206 0.19159414371651032 0.1054337009501206 0.19159414371651032 0.1054337009501206 0.19159414371651032 0.1054337009501206 0.19159414371651032
2450000000.0 0.12368885838244258 0.16072254189378468 0.12368885838244258 0.16072254189378468 0.12368885838244258 0.16072254189378468 0.12368885838244258 0.16072254189378468
2500000000.0 0.14592680989169995 0.1626003191630596 0.14592680989169995 0.1626003191630596 0.14592680989169995 0.1626003191630596 0.14592680989169995 0.1626003191630596
2550000000.0 0.15452234957022298 0.13335631521369246 0.15452234957022298 0.13335631521369246 0.15452234957022298 0.13335631521369246 0.15452234957022298 0.13335631521369246
2600000000.0 0.17859105847070117 0.12731394277591854 0.17859105847070117 0.12731394277591854 0.17859105847070117 0.12731394277591854 0.17859105847070117 0.12731394277591854
2650000000.0 0.17955943286627823 0.0990203638638549 0.17955943286627823 0.0990203638638549 0.17955943286627823 0.0990203638638549 0.17955943286627823 0.0990203638638549
2700000000.0 0.2024478312984709 0.08339003015027455 0.2024478312984709 0.08339003015027455 0.2024478312984709 0.08339003015027455 0.2024478312984709 0.08339003015027455
2750000000.0 0.19976717047065334 0.0580958763892329 0.19976717047065334 0.0580958763892329 0.19976717047065334 0.0580958763892329 0.19976717047065334 0.0580958763892329
2800000000.0 0.2164690509032708 0.03823758060316948 0.2164690509032708 0.03823758060316948 0.2164690509032708 0.03823758060316948 0.2164690509032708 0.03823758060316948
2850000000.0 0.20828839436777005 0.015373822093005547 0.20828839436777005 0.015373822093005547 0.20828839436777005 0.015373822093005547 0.20828839436777005 0.015373822093005547
2900000000.0 0.21914076760154377 -0.015147092995559885 0.21914076760154377 -0.015147092995559885 0.21914076760154377 -0.015147092995559885 0.21914076760154377 -0.015147092995559885
2950000000.0 0.21367898216542822 -0.028888919071890937 0.21367898216542822 -0.028888919071890937 0.21367898216542822 -0.028888919071890937 0.21367898216542822 -0.028888919071890937
3000000000.0 0.2106447356882242 -0.06170266866123647 0.2106447356882242 -0.06170266866123647 0.2106447356882242 -0.06170266866123647 0.2106447356882242 -0.06170266866123647
3050000000.0 0.20532403200051363 -0.07366396496727039 0.20532403200051363 -0.07366396496727039 0.20532403200051363 -0.07366396496727039 0.20532403200051363 -0.07366396496727039
3100000000.0 0.18687178432643456 -0.10154803371675547 0.18687178432643456 -0.10154803371675547 0.18687178432643456 -0.10154803371675547 0.18687178432643456 -0.10154803371675547
3150000000.0 0.18869079164640634 -0.12154219464364402 0.18869079164640634 -0.12154219464364402 0.18869079164640634 -0.12154219464364402 0.18869079164640634 -0.12154219464364402
3200000000.0 0.1605189689044358 -0.13503571688153426 0.1605189689044358 -0.13503571688153426 0.1605189689044358 -0.13503571688153426 0.1605189689044358 -0.13503571688153426
3250000000.0 0.1565843571464865 -0.16599491595198856 0.1565843571464865 -0.16599491595198856 0.1565843571464865 -0.16599491595198856 0.1565843571464865 -0.16599491595198856
3300000000.0 0.13005951835982987 -0.16895866401957665 0.13005951835982987 -0.16895866401957665 0.13005951835982987 -0.16895866401957665 0.13005951835982987 -0.16895866401957665
3350000000.0 0.12092363693165809 -0.1924985526406068 0.12092363693165809 -0.1924985526406068 0.12092363693165809 -0.1924985526406068 0.12092363693165809 -0.1924985526406068
3400000000.0 0.09260590084244798 -0.1932649045136217 0.09260590084244798 -0.1932649045136217 0.09260590084244798 -0.1932649045136217 0.09260590084244798 -0.1932649045136217
3450000000.0 0.07688190238750509 -0.21557055073206766 0.07688190238750509 -0.21557055073206766 0.07688190238750509 -0.21557055073206766 0.07688190238750509 -0.21557055073206766
3500000000.0 0.054717466321133924 -0.21194154339029514 0.054717466321133924 -0.21194154339029514 0.054717466321133924 -0.21194154339029514 0.054717466321133924 -0.21194154339029514
3550000000.0 0.023245833587193006 -0.22605999493611595 0.023245833587193006 -0.22605999493611595 0.023245833587193006 -0.22605999493611595 0.023245833587193006 -0.22605999493611595
3600000000.0 0.010588589080665931 -0.220783331569682 0.010588589080665931 -0.220783331569682 0.010588589080665931 -0.220783331569682 0.010588589080665931 -0.220783331569682
3650000000.0 -0.026752224225429694 -0.22001746448046267 -0.026752224225429694 -0.22001746448046267 -0.026752224225429694 -0.22001746448046267 -0.026752224225429694 -0.22001746448046267
3700000000.0 -0.03929060858828078 -0.22442979676809685 -0.03929060858828078 -0.22442979676809685 -0.03929060858828078 -0.22442979676809685 -0.03929060858828078 -0.22442979676809685
3750000000.0 -0.06770732716960094 -0.2045794581580299 -0.06770732716960094 -0.2045794581580299 -0.06770732716960094 -0.2045794581580299 -0.06770732716960094 -0.2045794581580299
3800000000.0 -0.09010316773257829 -0.21455756689221345 -0.09010316773257829 -0.21455756689221345 -0.09010316773257829 -0.21455756689221345 -0.09010316773257829 -0.21455756689221345
3850000000.0 -0.10629059577265443 -0.18965058463947468 -0.10629059577265443 -0.18965058463947468 -0.10629059577265443 -0.18965058463947468 -0.10629059577265443 -0.18965058463947468
3900000000.0 -0.13483629931774727 -0.1897008832116872 -0.13483629931774727 -0.1897008832116872 -0.13483629931774727 -0.1897008832116872 -0.13483629931774727 -0.1897008832116872
3950000000.0 -0.14208460715702814 -0.1637202680325546 -0.14208460715702814 -0.1637202680325546 -0.14208460715702814 -0.1637202680325546 -0.14208460715702814 -0.1637202680325546
4000000000.0 -0.16804836283381497 -0.15975348526331545 -0.16804836283381497 -0.15975348526331545 -0.16804836283381497 -0.15975348526331545 -0.16804836283381497 -0.15975348526331545
4050000000.0 -0.17818889486897593 -0.1308440847062097 -0.17818889486897593 -0.1308440847062097 -0.17818889486897593 -0.1308440847062097 -0.17818889486897593 -0.1308440847062097
4100000000.0 -0.20175798223919442 -0.11780463153917818 -0.20175798223919442 -0.11780463153917818 -0.20175798223919442 -0.11780463153917818 -0.20175798223919442 -0.11780463153917818
4150000000.0 -0.2008559084413352 -0.09335880985728418 -0.2008559084413352 -0.09335880985728418 -0.2008559084413352 -0.09335880985728418 -0.2008559084413352 -0.09335880985728418
4200000000.0 -0.22300344546850365 -0.07256546242897045 -0.22300344546850365 -0.07256546242897045 -0.22300344546850365 -0.07256546242897045 -0.22300344546850365 -0.07256546242897045
4250000000.0 -0.21908893184477918 -0.05365519054709025 -0.21908893184477918 -0.05365519054709025 -0.21908893184477918 -0.05365519054709025 -0.21908893184477918 -0.05365519054709025
4300000000.0 -0.22374054520303596 -0.015317385436204548 -0.22374054520303596 -0.015317385436204548 -0.22374054520303596 -0.015317385436204548 -0.22374054520303596 -0.015317385436204548
4350000000.0 -0.23436494922968085 -0.004307798695464326 -0.23436494922968085 -0.004307798695464326 -0.23436494922968085 -0.004307798695464326 -0.23436494922968085 -0.004307798695464326
4400000000.0 -0.21865700316623343 0.026096518353537112 -0.21865700316623343 0.026096518353537112 -0.21865700316623343 0.026096518353537112 -0.21865700316623343 0.026096518353537112
4450000000.0 -0.23153421989112843 0.05101908373105047 -0.23153421989112843 0.05101908373105047 -0.23153421989112843 0.05101908373105047 -0.23153421989112843 0.05101908373105047
4500000000.0 -0.211513528210073 0.06876003557783902 -0.211513528210073 0.06876003557783902 -0.211513528210073 0.06876003557783902 -0.211513528210073 0.06876003557783902
4550000000.0 -0.21250326602819286 0.10595001619760976 -0.21250326602819286 0.10595001619760976 -0.21250326602819286 0.10595001619760976 -0.21250326602819286 0.10595001619760976
4600000000.0 -0.1928767319462413 0.11464562161026753 -0.1928767319462413 0.11464562161026753 -0.1928767319462413 0.11464562161026753 -0.1928767319462413 0.11464562161026753
4650000000.0 -0.1878840327205623 0.1375795759103086 -0.1878840327205623 0.1375795759103086 -0.1878840327205623 0.1375795759103086 -0.1878840327205623 0.1375795759103086
4700000000.0 -0.16413605115483104 0.15413611771031735 -0.16413605115483104 0.15413611771031735 -0.16413605115483104 0.15413611771031735 -0.16413605115483104 0.15413611771031735
4750000000.0 -0.15541942845054585 0.17694333193504974 -0.15541942845054585 0.17694333193504974 -0.15541942845054585 0.17694333193504974 -0.15541942845054585 0.17694333193504974
4800000000.0 -0.1312656375409839 0.1820108717250884 -0.1312656375409839 0.1820108717250884 -0.1312656375409839 0.1820108717250884 -0.1312656375409839 0.1820108717250884
4850000000.0 -0.10778595317492293 0.20689472281147864 -0.10778595317492293 0.20689472281147864 -0.10778595317492293 0.20689472281147864 -0.10778595317492293 0.20689472281147864
4900000000.0 -0.09535228682752904 0.20779147878295895 -0.09535228682752904 0.20779147878295895 -0.09535228682752904 0.20779147878295895 -0.09535228682752904 0.20779147878295895
4950000000.0 -0.06559247928374425 0.22256532014322067 -0.06559247928374425 0.22256532014322067 -0.06559247928374425 0.22256532014322067 -0.06559247928374425 0.22256532014322067
5000000000.0 -0.046967390033099674 0.23403715664946823 -0.046967390033099674 0.23403715664946823 -0.046967390033099674 0.23403715664946823 -0.046967390033099674 0.23403715664946823
5050000000.0 -0.01755256658799547 0.22309346942603767 -0.01755256658799547 0.22309346942603767 -0.01755256658799547 0.22309346942603767 -0.01755256658799547 0.22309346942603767
5100000000.0 0.008269889693300694 0.23593801106969084 0.008269889693300694 0.23593801106969084 0.008269889693300694 0.23593801106969084 0.008269889693300694 0.23593801106969084
5150000000.0 0.028436303769679896 0.22729916627481442 0.028436303769679896 0.22729916627481442 0.028436303769679896 0.22729916627481442 0.028436303769679896 0.22729916627481442
5200000000.0 0.057933405794542744 0.22670289894144652 0.057933405794542744 0.22670289894144652 0.057933405794542744 0.22670289894144652 0.057933405794542744 0.22670289894144652
5250000000.0 0.08051933186976558 0.21642349556418633 0.08051933186976558 0.21642349556418633 0.08051933186976558 0.21642349556418633 0.08051933186976558 0.21642349556418633
5300000000.0 0.09915037275972233 0.2130785176108649 0.09915037275972233 0.2130785176108649 0.09915037275972233 0.2130785176108649 0.09915037275972233 0.2130785176108649
5350000000.0 0.12378644554050848 0.19046359036005608 0.12378644554050848 0.19046359036005608 0.12378644554050848 0.19046359036005608 0.12378644554050848 0.19046359036005608
5400000000.0 0.15174381931634828 0.18344620054392818 0.15174381931634828 0.18344620054392818 0.15174381931634828 0.18344620054392818 0.15174381931634828 0.18344620054392818
5450000000.0 0.15212064346638973 0.15988891521105966 0.15212064346638973 0.15988891521105966 0.15212064346638973 0.15988891521105966 0.15212064346638973 0.15988891521105966
5500000000.0 0.18696874547380782 0.14782156620179804 0.18696874547380782 0.14782156620179804 0.18696874547380782 0.14782156620179804 0.18696874547380782 0.14782156620179804
5550000000.0 0.19099160617531283 0.13355322550850782 0.19099160617531283 0.13355322550850782 0.19099160617531283 0.13355322550850782 0.19099160617531283 0.13355322550850782
5600000000.0 0.20776626496696302 0.10006955232748306 0.20776626496696302 0.10006955232748306 0.20776626496696302 0.10006955232748306 0.20776626496696302 0.10006955232748306
5650000000.0 0.2227298143140434 0.08727306086019311 0.2227298143140434 0.08727306086019311 0.2227298143140434 0.08727306086019311 0.2227298143140434 0.08727306086019311
5700000000.0 0.22130405048087387 0.059052630868764486 0.22130405048087387 0.059052630868764486 0.22130405048087387 0.059052630868764486 0.22130405048087387 0.059052630868764486
5750000000.0 0.2365987748386467 0.03316883417602969 0.2365987748386467 0.03316883417602969 0.2365987748386467 0.03316883417602969 0.2365987748386467 0.03316883417602969
5800000000.0 0.23224639188032967 0.011852479883695784 0.23224639188032967 0.011852479883695784 0.23224639188032967 0.011852479883695784 0.23224639188032967 0.011852479883695784
5850000000.0 0.2361595021072393 -0.014243099632666179 0.2361595021072393 -0.014243099632666179 0.2361595021072393 -0.014243099632666179 0.2361595021072393 -0.014243099632666179
5900000000.0 0.23074590082792737 -0.04318248097319742 0.23074590082792737 -0.04318248097319742 0.23074590082792737 -0.04318248097319742 0.23074590082792737 -0.04318248097319742
5950000000.0 0.23331434578705826 -0.057333432982254386 0.23331434578705826 -0.057333432982254386 0.23331434578705826 -0.057333432982254386 0.23331434578705826 -0.057333432982254386
6000000000.0 0.2129810579070187 -0.088309315323439 0.2129810579070187 -0.088309315323439 0.2129810579070187 -0.088309315323439 0.2129810579070187 -0.088309315323439
