! Created with skrf 2.0.0 (http://scikit-rf.org).
# Hz S RI R 50.0 
!freq ReS11 ImS11 ReS21 ImS21 ReS12 ImS12 ReS22 ImS22
100000000.0 -0.5665169904880408 0.12643113155798794 -0.5665169904880408 0.12643113155798794 -0.5665169904880408 0.12643113155798794 -0.5665169904880408 0.12643113155798794
150000000.0 -0.5452008906047766 0.1943735463653809 -0.5452008906047766 0.1943735463653809 -0.5452008906047766 0.1943735463653809 -0.5452008906047766 0.1943735463653809
200000000.0 -0.5187281642218134 0.2487901420355549 -0.5187281642218134 0.2487901420355549 -0.5187281642218134 0.2487901420355549 -0.5187281642218134 0.2487901420355549
250000000.0 -0.4841095967393639 0.3105332532601651 -0.4841095967393639 0.3105332532601651 -0.4841095967393639 0.3105332532601651 -0.4841095967393639 0.3105332532601651
300000000.0 -0.44799964658843067 0.35584934296745274 -0.44799964658843067 0.35584934296745274 -0.44799964658843067 0.35584934296745274 -0.44799964658843067 0.35584934296745274
350000000.0 -0.4004823082181834 0.406373011942158 -0.4004823082181834 0.406373011942158 -0.4004823082181834 0.406373011942158 -0.4004823082181834 0.406373011942158
400000000.0 -0.3562719855599622 0.44345760678481244 -0.3562719855599622 0.44345760678481244 -0.3562719855599622 0.44345760678481244 -0.3562719855599622 0.44345760678481244
450000000.0 -0.29643691556085533 0.4779455726767909 -0.29643691556085533 0.4779455726767909 -0.29643691556085533 0.4779455726767909 -0.29643691556085533 0.4779455726767909
500000000.0 -0.24776036875700713 0.5047176718853481 -0.24776036875700713 0.5047176718853481 -0.24776036875700713 0.5047176718853481 -0.24776036875700713 0.5047176718853481
550000000.0 -0.18555995005021622 0.5228607511906261 -0.18555995005021622 0.5228607511906261 -0.18555995005021622 0.5228607511906261 -0.18555995005021622 0.5228607511906261
600000000.0 -0.13175039056027657 0.5368714149058377 -0.13175039056027657 0.5368714149058377 -0.13175039056027657 0.5368714149058377 -0.13175039056027657 0.5368714149058377
650000000.0 -0.07391445531503323 0.5407622236670141 -0.07391445531503323 0.5407622236670141 -0.07391445531503323 0.5407622236670141 -0.07391445531503323 0.5407622236670141
700000000.0 -0.019310849821638575 0.5430282720371595 -0.019310849821638575 0.5430282720371595 -0.019310849821638575 0.5430282720371595 -0.019310849821638575 0.5430282720371595
750000000.0 0.029090991566358932 0.5385246937202801 0.029090991566358932 0.5385246937202801 0.029090991566358932 0.5385246937202801 0.029090991566358932 0.5385246937202801
800000000.0 0.08204757396030686 0.5363799656137263 0.08204757396030686 0.5363799656137263 0.08204757396030686 0.5363799656137263 0.08204757396030686 0.5363799656137263
850000000.0 0.1295561178097238 0.528353470589542 0.1295561178097238 0.528353470589542 0.1295561178097238 0.528353470589542 0.1295561178097238 0.528353470589542
900000000.0 0.18932656349133553 0.5165830256807913 0.18932656349133553 0.5165830256807913 0.18932656349133553 0.5165830256807913 0.18932656349133553 0.5165830256807913
950000000.0 0.2376929240559582 0.5022251843226009 0.2376929240559582 0.5022251843226009 0.2376929240559582 0.5022251843226009 0.2376929240559582 0.5022251843226009
1000000000.0 0.29812533059038626 0.47277248675309874 0.29812533059038626 0.47277248675309874 0.29812533059038626 0.47277248675309874 0.29812533059038626 0.47277248675309874
1050000000.0 0.345206339792451 0.44774743142789764 0.345206339792451 0.44774743142789764 0.345206339792451 0.44774743142789764 0.345206339792451 0.44774743142789764
1100000000.0 0.3966220491934454 0.40347501015212994 0.3966220491934454 0.40347501015212994 0.3966220491934454 0.40347501015212994 0.3966220491934454 0.40347501015212994
1150000000.0 0.43747615506163573 0.3662957698302057 0.43747615506163573 0.3662957698302057 0.43747615506163573 0.3662957698302057 0.43747615506163573 0.3662957698302057
1200000000.0 0.4770748324155006 0.31264155119898285 0.4770748324155006 0.31264155119898285 0.4770748324155006 0.31264155119898285 0.4770748324155006 0.31264155119898285
1250000000.0 0.5092702310124784 0.2648153731566509 0.5092702310124784 0.2648153731566509 0.5092702310124784 0.2648153731566509 0.5092702310124784 0.2648153731566509
1300000000.0 0.534468750729498 0.20563346505069427 0.534468750729498 0.20563346505069427 0.534468750729498 0.20563346505069427 0.534468750729498 0.20563346505069427
1350000000.0 0.5576347702969622 0.14738156898478436 0.5576347702969622 0.14738156898478436 0.5576347702969622 0.14738156898478436 0.5576347702969622 0.14738156898478436
1400000000.0 0.5672532232061619 0.08888162685249866 0.5672532232061619 0.08888162685249866 0.5672532232061619 0.08888162685249866 0.5672532232061619 0.08888162685249866
1450000000.0 0.578914857884916 0.025112437411068694 0.578914857884916 0.025112437411068694 0.578914857884916 0.025112437411068694 0.578914857884916 0.025112437411068694
1500000000.0 0.5750361835025256 -0.032424695898434185 0.5750361835025256 -0.032424695898434185 0.5750361835025256 -0.032424695898434185 0.5750361835025256 -0.032424695898434185
1550000000.0 0.5710632396698022 -0.10051909624005947 0.5710632396698022 -0.10051909624005947 0.5710632396698022 -0.10051909624005947 0.5710632396698022 -0.10051909624005947
1600000000.0 0.5577698232105637 -0.1536771459258611 0.5577698232105637 -0.1536771459258611 0.5577698232105637 -0.1536771459258611 0.5577698232105637 -0.1536771459258611
1650000000.0 0.5358637334585663 -0.22018692802898976 0.5358637334585663 -0.22018692802898976 0.5358637334585663 -0.22018692802898976 0.5358637334585663 -0.22018692802898976
1700000000.0 0.5125443265880902 -0.26620746267531065 0.5125443265880902 -0.26620746267531065 0.5125443265880902 -0.26620746267531065 0.5125443265880902 -0.26620746267531065
1750000000.0 0.47618425262574743 -0.3274242117052977 0.47618425262574743 -0.3274242117052977 0.47618425262574743 -0.3274242117052977 0.47618425262574743 -0.3274242117052977
1800000000.0 0.4449386077997032 -0.37147147910607003 0.4449386077997032 -0.37147147910607003 0.4449386077997032 -0.37147147910607003 0.4449386077997032 -0.37147147910607003
1850000000.0 0.3992832973985636 -0.4218382066311116 0.3992832973985636 -0.4218382066311116 0.3992832973985636 -0.4218382066311116 0.3992832973985636 -0.4218382066311116
1900000000.0 0.3569604213465391 -0.4569092597689121 0.3569604213465391 -0.4569092597689121 0.3569604213465391 -0.4569092597689121 0.3569604213465391 -0.4569092597689121
1950000000.0 0.30154279384282484 -0.4922662756088301 0.30154279384282484 -0.4922662756088301 0.30154279384282484 -0.4922662756088301 0.30154279384282484 -0.4922662756088301
2000000000.0 0.2502258471235605 -0.524869628441218 0.2502258471235605 -0.524869628441218 0.2502258471235605 -0.524869628441218 0.2502258471235605 -0.524869628441218
2050000000.0 0.1919497482314456 -0.5427115442285371 0.1919497482314456 -0.5427115442285371 0.1919497482314456 -0.5427115442285371 0.1919497482314456 -0.5427115442285371
2100000000.0 0.13008883419531242 -0.5667308573086146 0.13008883419531242 -0.5667308573086146 0.13008883419531242 -0.5667308573086146 0.13008883419531242 -0.5667308573086146
2150000000.0 0.07511364300039375 -0.5705003959266951 0.07511364300039375 -0.5705003959266951 0.07511364300039375 -0.5705003959266951 0.07511364300039375 -0.5705003959266951
2200000000.0 0.008444344924951492 -0.579515994978405 0.008444344924951492 -0.579515994978405 0.008444344924951492 -0.579515994978405 0.008444344924951492 -0.579515994978405
2250000000.0 -0.04597942284735686 -0.5750701572171578 -0.04597942284735686 -0.5750701572171578 -0.04597942284735686 -0.5750701572171578 -0.04597942284735686 -0.5750701572171578
2300000000.0 -0.11508676255538386 -0.5650421633031492 -0.11508676255538386 -0.5650421633031492 -0.11508676255538386 -0.5650421633031492 -0.11508676255538386 -0.5650421633031492
2350000000.0 -0.16405959942495038 -0.5510329695359578 -0.16405959942495038 -0.5510329695359578 -0.16405959942495038 -0.5510329695359578 -0.16405959942495038 -0.5510329695359578
2400000000.0 -0.2300073543272502 -0.5241286512274497 -0.2300073543272502 -0.5241286512274497 -0.2300073543272502 -0.5241286512274497 -0.2300073543272502 -0.5241286512274497
2450000000.0 -0.28052592703913853 -0.5042970931025765 -0.28052592703913853 -0.5042970931025765 -0.28052592703913853 -0.5042970931025765 -0.28052592703913853 -0.5042970931025765
2500000000.0 -0.33403877725184616 -0.4675393389858587 -0.33403877725184616 -0.4675393389858587 -0.33403877725184616 -0.4675393389858587 -0.33403877725184616 -0.4675393389858587
2550000000.0 -0.3778486925757319 -0.43259535410055266 -0.3778486925757319 -0.43259535410055266 -0.3778486925757319 -0.43259535410055266 -0.3778486925757319 -0.43259535410055266
2600000000.0 -0.4229011592703701 -0.38578130129815275 -0.4229011592703701 -0.38578130129815275 -0.4229011592703701 -0.38578130129815275 -0.4229011592703701 -0.38578130129815275
2650000000.0 -0.4637349942548201 -0.33890061021764945 -0.4637349942548201 -0.33890061021764945 -0.4637349942548201 -0.33890061021764945 -0.4637349942548201 -0.33890061021764945
2700000000.0 -0.49156458185642743 -0.2869814099133629 -0.49156458185642743 -0.2869814099133629 -0.49156458185642743 -0.2869814099133629 -0.49156458185642743 -0.2869814099133629
2750000000.0 -0.5234975032228153 -0.23537202725284054 -0.5234975032228153 -0.23537202725284054 -0.5234975032228153 -0.23537202725284054 -0.5234975032228153 -0.23537202725284054
2800000000.0 -0.5378750245547035 -0.17662296669272662 -0.5378750245547035 -0.17662296669272662 -0.5378750245547035 -0.17662296669272662 -0.5378750245547035 -0.17662296669272662
2850000000.0 -0.5604355673191905 -0.11820891294481527 -0.5604355673191905 -0.11820891294481527 -0.5604355673191905 -0.11820891294481527 -0.5604355673191905 -0.11820891294481527
2900000000.0 -0.5627883381422646 -0.06101185619853744 -0.5627883381422646 -0.06101185619853744 -0.5627883381422646 -0.06101185619853744 -0.5627883381422646 -0.06101185619853744
2950000000.0 -0.5658478785275057 0.008605018527347163 -0.5658478785275057 0.008605018527347163 -0.5658478785275057 0.008605018527347163 -0.5658478785275057 0.008605018527347163
3000000000.0 -0.5604304427777367 0.05588082751865057 -0.5604304427777367 0.05588082751865057 -0.5604304427777367 0.05588082751865057 -0.5604304427777367 0.05588082751865057
3050000000.0 -0.5513224859497764 0.1261234982711423 -0.5513224859497764 0.1261234982711423 -0.5513224859497764 0.1261234982711423 -0.5513224859497764 0.1261234982711423
3100000000.0 -0.5355055291041689 0.17609458553193413 -0.5355055291041689 0.17609458553193413 -0.5355055291041689 0.17609458553193413 -0.5355055291041689 0.17609458553193413
3150000000.0 -0.5104038663125703 0.23845701294184862 -0.5104038663125703 0.23845701294184862 -0.5104038663125703 0.23845701294184862 -0.5104038663125703 0.23845701294184862
3200000000.0 -0.4835276779338962 0.2885595427014954 -0.4835276779338962 0.2885595427014954 -0.4835276779338962 0.2885595427014954 -0.4835276779338962 0.2885595427014954
3250000000.0 -0.4458079839902685 0.3379052987510457 -0.4458079839902685 0.3379052987510457 -0.4458079839902685 0.3379052987510457 -0.4458079839902685 0.3379052987510457
3300000000.0 -0.41268766555217873 0.3812033164622736 -0.41268766555217873 0.3812033164622736 -0.41268766555217873 0.3812033164622736 -0.41268766555217873 0.3812033164622736
3350000000.0 -0.36225932246375103 0.42332159745063097 -0.36225932246375103 0.42332159745063097 -0.36225932246375103 0.42332159745063097 -0.36225932246375103 0.42332159745063097
3400000000.0 -0.31999272189221073 0.4613840808652849 -0.31999272189221073 0.4613840808652849 -0.31999272189221073 0.4613840808652849 -0.31999272189221073 0.4613840808652849
3450000000.0 -0.2635491262351365 0.4865057464248547 -0.2635491262351365 0.4865057464248547 -0.2635491262351365 0.4865057464248547 -0.2635491262351365 0.4865057464248547
3500000000.0 -0.2083684884618343 0.5168455236789962 -0.2083684884618343 0.5168455236789962 -0.2083684884618343 0.5168455236789962 -0.2083684884618343 0.5168455236789962
3550000000.0 -0.15693292534847883 0.5295772548612337 -0.15693292534847883 0.5295772548612337 -0.15693292534847883 0.5295772548612337 -0.15693292534847883 0.5295772548612337
3600000000.0 -0.09139628560924778 0.5488528653032934 -0.09139628560924778 0.5488528653032934 -0.09139628560924778 0.5488528653032934 -0.09139628560924778 0.5488528653032934
3650000000.0 -0.041969269903345555 0.551235543552116 -0.041969269903345555 0.551235543552116 -0.041969269903345555 0.551235543552116 -0.041969269903345555 0.551235543552116
3700000000.0 0.028842483416061954 0.5527720536352861 0.028842483416061954 0.5527720536352861 0.028842483416061954 0.5527720536352861 0.028842483416061954 0.5527720536352861
3750000000.0 0.07844319396521438 0.5472590138018034 0.07844319396521438 0.5472590138018034 0.07844319396521438 0.5472590138018034 0.07844319396521438 0.5472590138018034
3800000000.0 0.14071640453841594 0.5317735877063808 0.14071640453841594 0.5317735877063808 0.14071640453841594 0.5317735877063808 0.14071640453841594 0.5317735877063808
3850000000.0 0.19369513654078216 0.5152437229719766 0.19369513654078216 0.5152437229719766 0.19369513654078216 0.5152437229719766 0.19369513654078216 0.5152437229719766
3900000000.0 0.24866633440392272 0.48811272938560346 0.24866633440392272 0.48811272938560346 0.24866633440392272 0.48811272938560346 0.24866633440392272 0.48811272938560346
3950000000.0 0.3052885988561886 0.457964874615145 0.3052885988561886 0.457964874615145 0.3052885988561886 0.457964874615145 0.3052885988561886 0.457964874615145
4000000000.0 0.34568389355348483 0.42144588219905305 0.34568389355348483 0.42144588219905305 0.34568389355348483 0.42144588219905305 0.34568389355348483 0.42144588219905305
4050000000.0 0.38985264254432656 0.38669806669370926 0.38985264254432656 0.38669806669370926 0.38985264254432656 0.38669806669370926 0.38985264254432656 0.38669806669370926
4100000000.0 0.42303798262878134 0.3371309988967683 0.42303798262878134 0.3371309988967683 0.42303798262878134 0.3371309988967683 0.42303798262878134 0.3371309988967683
4150000000.0 0.46460359269350454 0.29142780084331965 0.46460359269350454 0.29142780084331965 0.46460359269350454 0.29142780084331965 0.46460359269350454 0.29142780084331965
4200000000.0 0.47983894563017176 0.24190404045232142 0.47983894563017176 0.24190404045232142 0.47983894563017176 0.24190404045232142 0.47983894563017176 0.24190404045232142
4250000000.0 0.5147761656231737 0.18299980877692862 0.5147761656231737 0.18299980877692862 0.5147761656231737 0.18299980877692862 0.5147761656231737 0.18299980877692862
4300000000.0 0.5241161755287799 0.1359128601315016 0.5241161755287799 0.1359128601315016 0.5241161755287799 0.1359128601315016 0.5241161755287799 0.1359128601315016
4350000000.0 0.5367128869523855 0.0681481458349146 0.5367128869523855 0.0681481458349146 0.5367128869523855 0.0681481458349146 0.5367128869523855 0.0681481458349146
4400000000.0 0.5412548139329312 0.018871054828008247 0.5412548139329312 0.018871054828008247 0.5412548139329312 0.018871054828008247 0.5412548139329312 0.018871054828008247
4450000000.0 0.5369914613543499 -0.043634297979633516 0.5369914613543499 -0.043634297979633516 0.5369914613543499 -0.043634297979633516 0.5369914613543499 -0.043634297979633516
4500000000.0 0.5306583196009137 -0.0985156636062657 0.5306583196009137 -0.0985156636062657 0.5306583196009137 -0.0985156636062657 0.5306583196009137 -0.0985156636062657
4550000000.0 0.511727392394259 -0.15421098638288108 0.511727392394259 -0.15421098638288108 0.511727392394259 -0.15421098638288108 0.511727392394259 -0.15421098638288108
4600000000.0 0.49727604212503557 -0.2098950731848518 0.49727604212503557 -0.2098950731848518 0.49727604212503557 -0.2098950731848518 0.49727604212503557 -0.2098950731848518
4650000000.0 0.4665679313576897 -0.2607077160945503 0.4665679313576897 -0.2607077160945503 0.4665679313576897 -0.2607077160945503 0.4665679313576897 -0.2607077160945503
4700000000.0 0.44273207937381637 -0.3095092939875531 0.44273207937381637 -0.3095092939875531 0.44273207937381637 -0.3095092939875531 0.44273207937381637 -0.3095092939875531
4750000000.0 0.39886947881249135 -0.34980473423434055 0.39886947881249135 -0.34980473423434055 0.39886947881249135 -0.34980473423434055 0.39886947881249135 -0.34980473423434055
4800000000.0 0.36364179645295763 -0.3991714260894089 0.36364179645295763 -0.3991714260894089 0.36364179645295763 -0.3991714260894089 0.36364179645295763 -0.3991714260894089
4850000000.0 0.31925918966956585 -0.42394137950589317 0.31925918966956585 -0.42394137950589317 0.31925918966956585 -0.42394137950589317 0.31925918966956585 -0.42394137950589317
4900000000.0 0.2680574845733613 -0.4649578857067759 0.2680574845733613 -0.4649578857067759 0.2680574845733613 -0.4649578857067759 0.2680574845733613 -0.4649578857067759
4950000000.0 0.22359621840848204 -0.4803756099274408 0.22359621840848204 -0.4803756099274408 0.22359621840848204 -0.4803756099274408 0.22359621840848204 -0.4803756099274408
5000000000.0 0.1594073413397687 -0.5049286673527503 0.1594073413397687 -0.5049286673527503 0.1594073413397687 -0.5049286673527503 0.1594073413397687 -0.5049286673527503
5050000000.0 0.11147196582784422 -0.5218965247098359 0.11147196582784422 -0.5218965247098359 0.11147196582784422 -0.5218965247098359 0.11147196582784422 -0.5218965247098359
5100000000.0 0.05419448484762961 -0.5277121862159603 0.05419448484762961 -0.5277121862159603 0.05419448484762961 -0.5277121862159603 0.05419448484762961 -0.5277121862159603
5150000000.0 -0.003102859742108854 -0.5304502597402422 -0.003102859742108854 -0.5304502597402422 -0.003102859742108854 -0.5304502597402422 -0.003102859742108854 -0.5304502597402422
5200000000.0 -0.05869750265989452 -0.526166682902542 -0.05869750265989452 -0.526166682902542 -0.05869750265989452 -0.526166682902542 -0.05869750265989452 -0.526166682902542
5250000000.0 -0.11245620425639305 -0.5176949365927473 -0.11245620425639305 -0.5176949365927473 -0.11245620425639305 -0.5176949365927473 -0.11245620425639305 -0.5176949365927473
5300000000.0 -0.171227787806972 -0.4981212844225291 -0.171227787806972 -0.4981212844225291 -0.171227787806972 -0.4981212844225291 -0.171227787806972 -0.4981212844225291
5350000000.0 -0.21861802093448218 -0.48575438178574754 -0.21861802093448218 -0.48575438178574754 -0.21861802093448218 -0.48575438178574754 -0.21861802093448218 -0.48575438178574754
5400000000.0 -0.2687257525979847 -0.4491896228686899 -0.2687257525979847 -0.4491896228686899 -0.2687257525979847 -0.4491896228686899 -0.2687257525979847 -0.4491896228686899
5450000000.0 -0.3186253359456803 -0.4306308046127639 -0.3186253359456803 -0.4306308046127639 -0.3186253359456803 -0.4306308046127639 -0.3186253359456803 -0.4306308046127639
5500000000.0 -0.3532647684821573 -0.38464808119992455 -0.3532647684821573 -0.38464808119992455 -0.3532647684821573 -0.38464808119992455 -0.3532647684821573 -0.38464808119992455
5550000000.0 -0.40189482052172204 -0.340134323915512 -0.40189482052172204 -0.340134323915512 -0.40189482052172204 -0.340134323915512 -0.40189482052172204 -0.340134323915512
5600000000.0 -0.42947483351750043 -0.3026925919695232 -0.42947483351750043 -0.3026925919695232 -0.42947483351750043 -0.3026925919695232 -0.42947483351750043 -0.3026925919695232
5650000000.0 -0.46055353156306034 -0.24764727131901965 -0.46055353156306034 -0.24764727131901965 -0.46055353156306034 -0.24764727131901965 -0.46055353156306034 -0.24764727131901965
5700000000.0 -0.48446207647097417 -0.20036749866732925 -0.48446207647097417 -0.20036749866732925 -0.48446207647097417 -0.20036749866732925 -0.48446207647097417 -0.20036749866732925
5750000000.0 -0.5023433879559194 -0.14758073506504496 -0.5023433879559194 -0.14758073506504496 -0.5023433879559194 -0.14758073506504496 -0.5023433879559194 -0.14758073506504496
5800000000.0 -0.5133617816585407 -0.09153597299386122 -0.5133617816585407 -0.09153597299386122 -0.5133617816585407 -0.09153597299386122 -0.5133617816585407 -0.09153597299386122
5850000000.0 -0.5214593561853698 -0.0359302509510902 -0.5214593561853698 -0.0359302509510902 -0.5214593561853698 -0.0359302509510902 -0.5214593561853698 -0.0359302509510902
5900000000.0 -0.5218322113754078 0.013999115794314062 -0.5218322113754078 0.013999115794314062 -0.5218322113754078 0.013999115794314062 -0.5218322113754078 0.013999115794314062
5950000000.0 -0.5120427890266235 0.07640893241374305 -0.5120427890266235 0.07640893241374305 -0.5120427890266235 0.07640893241374305 -0.5120427890266235 0.07640893241374305
6000000000.0 -0.5099051037760308 0.12792691017584573 -0.5099051037760308 0.12792691017584573 -0.5099051037760308 0.12792691017584573 -0.5099051037760308 0.12792691017584573
