! Created with skrf 2.0.0 (http://scikit-rf.org).
# Hz S RI R 50.0 
!freq ReS11 ImS11
!
100000000.0 -0.5608717538473306 0.12684901883332428
150000000.0 -0.5419094426362276 0.19068259186887843
200000000.0 -0.5150607711200682 0.24949759468099822
250000000.0 -0.48299761766763544 0.30571633030850265
300000000.0 -0.44494560028383573 0.35557206162644045
350000000.0 -0.4009289292500457 0.4020384606859371
400000000.0 -0.3538608176852231 0.44179387342865223
450000000.0 -0.3009009556884597 0.47669109489372635
500000000.0 -0.24623751546368255 0.5049740996309459
550000000.0 -0.18726988126037936 0.525830358260739
600000000.0 -0.12817686673752976 0.540809479995651
650000000.0 -0.0679388975153894 0.5457821412681946
700000000.0 -0.00914661144145255 0.5456461725389231
750000000.0 0.046163368732731455 0.5356784793336073
800000000.0 0.09734470727305634 0.5238531996882706
850000000.0 0.14252030441518612 0.5076541476788701
900000000.0 0.18728390485996407 0.49380945986026625
950000000.0 0.23176442793061264 0.4786877792649991
1000000000.0 0.2813374942678107 0.4593166248461504
1050000000.0 0.3298726626161276 0.43459332793785493
1100000000.0 0.3783824187286243 0.400740385065397
1150000000.0 0.4221733199601612 0.3619655552220156
1200000000.0 0.46160849941347254 0.314833518732776
1250000000.0 0.49585746542195863 0.265798694970948
1300000000.0 0.5226748525526052 0.21062634464581412
1350000000.0 0.5451050627311869 0.15417165120661672
1400000000.0 0.5583370699421022 0.09462128805525774
1450000000.0 0.5676456364003555 0.03409469137550795
1500000000.0 0.5674412847571985 -0.026014630196436368
1550000000.0 0.5629267109826996 -0.08764008708803957
1600000000.0 0.5509165732919947 -0.14608346472642944
1650000000.0 0.5323286886478179 -0.20507215099363116
1700000000.0 0.5086453512784544 -0.2596394543679054
1750000000.0 0.47717576413819407 -0.3128773011934896
1800000000.0 0.44250114735074964 -0.3617323124541452
1850000000.0 0.400533759106812 -0.40658180057904336
1900000000.0 0.3569385540359076 -0.44653610808456207
1950000000.0 0.30623980959355057 -0.4815315201717101
2000000000.0 0.25412585566489193 -0.5122815355919116
2050000000.0 0.19825409559417226 -0.5347785930195833
2100000000.0 0.13996584201096432 -0.5538284260416488
2150000000.0 0.081563805842378 -0.5640636569880861
2200000000.0 0.02053192371505645 -0.5703802316219602
2250000000.0 -0.03933218659979495 -0.5683904926120962
2300000000.0 -0.10012387269846731 -0.5600761433400098
2350000000.0 -0.15728356165122745 -0.5463247327710387
2400000000.0 -0.21522107216922565 -0.5255405319223401
2450000000.0 -0.26901537857165997 -0.5003226246004749
2500000000.0 -0.320076031123099 -0.46699094460191926
2550000000.0 -0.36698011277874093 -0.4318661913176239
2600000000.0 -0.41030426111124485 -0.3884360724363516
2650000000.0 -0.44975894991657844 -0.34272114517178526
2700000000.0 -0.4815952562697355 -0.29259251535001496
2750000000.0 -0.5107285717554327 -0.23897485610526709
2800000000.0 -0.5310579208038201 -0.18384079222312855
2850000000.0 -0.5485754971499909 -0.12724975667041608
2900000000.0 -0.5564229704854557 -0.06754864092906493
2950000000.0 -0.5603222875160385 -0.006984220441800774
3000000000.0 -0.5567395520474466 0.051737879799929644
3050000000.0 -0.5468668467754599 0.11144104446605865
3100000000.0 -0.5318998064222489 0.1674447445794391
3150000000.0 -0.5090596448677386 0.223837018130376
3200000000.0 -0.48268531745686505 0.2759947256691364
3250000000.0 -0.4487607750930689 0.32533031793028694
3300000000.0 -0.4120505086903192 0.3712414112714337
3350000000.0 -0.3684693945594951 0.41172270413632167
3400000000.0 -0.3197546008634598 0.4497827569838161
3450000000.0 -0.2723205931694521 0.4782865947851922
3500000000.0 -0.21922453431416192 0.505059537806394
3550000000.0 -0.16474536154755376 0.5236332911295183
3600000000.0 -0.10681534203792842 0.5380947870657508
3650000000.0 -0.049844223403101136 0.5452799055468298
3700000000.0 0.009763384371540567 0.54654451601817
3750000000.0 0.06640624160879909 0.541705480738196
3800000000.0 0.12459905692443249 0.529872745305437
3850000000.0 0.1795360793908973 0.5139445418864694
3900000000.0 0.23320170207384913 0.4905753493799386
3950000000.0 0.2838000711363727 0.4625901395467631
4000000000.0 0.3301861815371679 0.42822258640225763
4050000000.0 0.3744565895515791 0.39044208479307724
4100000000.0 0.411807886996409 0.34769578800440143
4150000000.0 0.44689885540864155 0.3011843366486593
4200000000.0 0.47480679697271816 0.25245469138986193
4250000000.0 0.4987220030268149 0.1993033987732984
4300000000.0 0.5161665735819803 0.14582546837458976
4350000000.0 0.5279172011575353 0.08889863885258088
4400000000.0 0.5338105585980218 0.033265936342422996
4450000000.0 0.5327973819695775 -0.024765899235569218
4500000000.0 0.527098036466449 -0.07941891942012748
4550000000.0 0.5139613237387098 -0.13624440648654013
4600000000.0 0.49682484322183107 -0.18968757170257045
4650000000.0 0.4719477404830853 -0.24119477857776433
4700000000.0 0.4436488741763301 -0.2900422116172643
4750000000.0 0.40883891145681983 -0.3344561224548239
4800000000.0 0.370759078345164 -0.37635900915939746
4850000000.0 0.3279990365534111 -0.4125052674496934
4900000000.0 0.2815026461887807 -0.44529782415278885
4950000000.0 0.23259593111209287 -0.4714405125424023
5000000000.0 0.17999465903906164 -0.4927752743307397
5050000000.0 0.1268085382837171 -0.5088681700973782
5100000000.0 0.07096000667115678 -0.518068777851703
5150000000.0 0.015771685307746683 -0.5223425113391074
5200000000.0 -0.04031150416401903 -0.5197496934140148
5250000000.0 -0.09564790826771492 -0.5119971656429526
5300000000.0 -0.1493029008395457 -0.4980870362022357
5350000000.0 -0.20092001862774445 -0.47980238139708087
5400000000.0 -0.25046555640811013 -0.4537687097450069
5450000000.0 -0.29782240023734236 -0.42402548007876756
5500000000.0 -0.3398869765438503 -0.3889840438398324
5550000000.0 -0.3798808727509355 -0.3502260295341549
5600000000.0 -0.41335463019121005 -0.3071891927378913
5650000000.0 -0.44388391975677494 -0.2606563285275011
5700000000.0 -0.46780544089321996 -0.21211772120486833
5750000000.0 -0.487059653000582 -0.1594897744944917
5800000000.0 -0.5008028709712239 -0.10726787987939332
5850000000.0 -0.5085250658400605 -0.05229221446833558
5900000000.0 -0.5110442029090889 0.0011111071352993662
5950000000.0 -0.5066088927518783 0.05648734339870295
6000000000.0 -0.497450678472904 0.10984795274520466
