! Created with skrf 2.0.0 (http://scikit-rf.org).
# Hz S RI R 50.0 
!freq ReS11 ImS11 ReS21 ImS21 ReS12 ImS12 ReS22 ImS22
100000000.0 0.23116800503715554 -0.052092558532560646 0.23116800503715554 -0.052092558532560646 0.23116800503715554 -0.052092558532560646 0.23116800503715554 -0.052092558532560646
150000000.0 0.2101760399266223 -0.063929767468454 0.2101760399266223 -0.063929767468454 0.2101760399266223 -0.063929767468454 0.2101760399266223 -0.063929767468454
200000000.0 0.2142179744325853 -0.0998044316578099 0.2142179744325853 -0.0998044316578099 0.2142179744325853 -0.0998044316578099 0.2142179744325853 -0.0998044316578099
250000000.0 0.19667220974482136 -0.10706279470404798 0.19667220974482136 -0.10706279470404798 0.19667220974482136 -0.10706279470404798 0.19667220974482136 -0.10706279470404798
300000000.0 0.18528681186013032 -0.1397114219093177 0.18528681186013032 -0.1397114219093177 0.18528681186013032 -0.1397114219093177 0.18528681186013032 -0.1397114219093177
350000000.0 0.1734287346482322 -0.14720329690491468 0.1734287346482322 -0.14720329690491468 0.1734287346482322 -0.14720329690491468 0.1734287346482322 -0.14720329690491468
400000000.0 0.14799620624674745 -0.17036019594518584 0.14799620624674745 -0.17036019594518584 0.14799620624674745 -0.17036019594518584 0.14799620624674745 -0.17036019594518584
450000000.0 0.14160897189620378 -0.18716124728481554 0.14160897189620378 -0.18716124728481554 0.14160897189620378 -0.18716124728481554 0.14160897189620378 -0.18716124728481554
500000000.0 0.10848155909079162 -0.19393515530890854 0.10848155909079162 -0.19393515530890854 0.10848155909079162 -0.19393515530890854 0.10848155909079162 -0.19393515530890854
550000000.0 0.09903069167135102 -0.21801812101548806 0.09903069167135102 -0.21801812101548806 0.09903069167135102 -0.21801812101548806 0.09903069167135102 -0.21801812101548806
600000000.0 0.06704174821834444 -0.2100852895504508 0.06704174821834444 -0.2100852895504508 0.06704174821834444 -0.2100852895504508 0.06704174821834444 -0.2100852895504508
650000000.0 0.049217335971209655 -0.23697096221106073 0.049217335971209655 -0.23697096221106073 0.049217335971209655 -0.23697096221106073 0.049217335971209655 -0.23697096221106073
700000000.0 0.022788943029351486 -0.2200453644921336 0.022788943029351486 -0.2200453644921336 0.022788943029351486 -0.2200453644921336 0.022788943029351486 -0.2200453644921336
750000000.0 -0.007235064667048806 -0.24212931034118926 -0.007235064667048806 -0.24212931034118926 -0.007235064667048806 -0.24212931034118926 -0.007235064667048806 -0.24212931034118926
800000000.0 -0.026460435229527585 -0.22044482941761842 -0.026460435229527585 -0.22044482941761842 -0.026460435229527585 -0.22044482941761842 -0.026460435229527585 -0.22044482941761842
850000000.0 -0.0632882761958472 -0.2284810221874058 -0.0632882761958472 -0.2284810221874058 -0.0632882761958472 -0.2284810221874058 -0.0632882761958472 -0.2284810221874058
900000000.0 -0.0743406487067887 -0.21027149652094698 -0.0743406487067887 -0.21027149652094698 -0.0743406487067887 -0.21027149652094698 -0.0743406487067887 -0.21027149652094698
950000000.0 -0.11000586199206121 -0.198725177652275 -0.11000586199206121 -0.198725177652275 -0.11000586199206121 -0.198725177652275 -0.11000586199206121 -0.198725177652275
1000000000.0 -0.1193574052588895 -0.19075903989277346 -0.1193574052588895 -0.19075903989277346 -0.1193574052588895 -0.19075903989277346 -0.1193574052588895 -0.19075903989277346
1050000000.0 -0.14410155514179857 -0.1624906907404683 -0.14410155514179857 -0.1624906907404683 -0.14410155514179857 -0.1624906907404683 -0.14410155514179857 -0.1624906907404683
1100000000.0 -0.16003969548462965 -0.16136013692401605 -0.16003969548462965 -0.16136013692401605 -0.16003969548462965 -0.16136013692401605 -0.16003969548462965 -0.16136013692401605
1150000000.0 -0.1682174920111399 -0.12548800065357665 -0.1682174920111399 -0.12548800065357665 -0.1682174920111399 -0.12548800065357665 -0.1682174920111399 -0.12548800065357665
1200000000.0 -0.1938251984570254 -0.1220582439339579 -0.1938251984570254 -0.1220582439339579 -0.1938251984570254 -0.1220582439339579 -0.1938251984570254 -0.1220582439339579
1250000000.0 -0.18608017164883445 -0.08688353606161858 -0.18608017164883445 -0.08688353606161858 -0.18608017164883445 -0.08688353606161858 -0.18608017164883445 -0.08688353606161858
1300000000.0 -0.2164770407297828 -0.07301785494690732 -0.2164770407297828 -0.07301785494690732 -0.2164770407297828 -0.07301785494690732 -0.2164770407297828 -0.07301785494690732
1350000000.0 -0.19806589841595143 -0.04735341654362767 -0.19806589841595143 -0.04735341654362767 -0.19806589841595143 -0.04735341654362767 -0.19806589841595143 -0.04735341654362767
1400000000.0 -0.2237260307750139 -0.02300154171156528 -0.2237260307750139 -0.02300154171156528 -0.2237260307750139 -0.02300154171156528 -0.2237260307750139 -0.02300154171156528
1450000000.0 -0.2044914445608788 -0.00502543017076907 -0.2044914445608788 -0.00502543017076907 -0.2044914445608788 -0.00502543017076907 -0.2044914445608788 -0.00502543017076907
1500000000.0 -0.2168081268405451 0.028900156680670645 -0.2168081268405451 0.028900156680670645 -0.2168081268405451 0.028900156680670645 -0.2168081268405451 0.028900156680670645
1550000000.0 -0.2045096362675177 0.03905502186381807 -0.2045096362675177 0.03905502186381807 -0.2045096362675177 0.03905502186381807 -0.2045096362675177 0.03905502186381807
1600000000.0 -0.19785150593924086 0.07469966146571996 -0.19785150593924086 0.07469966146571996 -0.19785150593924086 0.07469966146571996 -0.19785150593924086 0.07469966146571996
1650000000.0 -0.1953504496579935 0.08436394433999264 -0.1953504496579935 0.08436394433999264 -0.1953504496579935 0.08436394433999264 -0.1953504496579935 0.08436394433999264
1700000000.0 -0.17458411204928279 0.11295409623764796 -0.17458411204928279 0.11295409623764796 -0.17458411204928279 0.11295409623764796 -0.17458411204928279 0.11295409623764796
1750000000.0 -0.1752790790874839 0.13025366185189724 -0.1752790790874839 0.13025366185189724 -0.1752790790874839 0.13025366185189724 -0.1752790790874839 0.13025366185189724
1800000000.0 -0.14155418488777505 0.14186966888770122 -0.14155418488777505 0.14186966888770122 -0.14155418488777505 0.14186966888770122 -0.14155418488777505 0.14186966888770122
1850000000.0 -0.14316773803537147 0.1643449442952889 -0.14316773803537147 0.1643449442952889 -0.14316773803537147 0.1643449442952889 -0.14316773803537147 0.1643449442952889
1900000000.0 -0.10883122689497857 0.16766656263243912 -0.10883122689497857 0.16766656263243912 -0.10883122689497857 0.16766656263243912 -0.10883122689497857 0.16766656263243912
1950000000.0 -0.09863301652597382 0.19656450228539538 -0.09863301652597382 0.19656450228539538 -0.09863301652597382 0.19656450228539538 -0.09863301652597382 0.19656450228539538
2000000000.0 -0.07207984523446957 0.1872489917880254 -0.07207984523446957 0.1872489917880254 -0.07207984523446957 0.1872489917880254 -0.07207984523446957 0.1872489917880254
2050000000.0 -0.05135821103055144 0.211203723257361 -0.05135821103055144 0.211203723257361 -0.05135821103055144 0.211203723257361 -0.05135821103055144 0.211203723257361
2100000000.0 -0.03176954874148171 0.20145228069599896 -0.03176954874148171 0.20145228069599896 -0.03176954874148171 0.20145228069599896 -0.03176954874148171 0.20145228069599896
2150000000.0 -0.002906776708498722 0.2139297843261801 -0.002906776708498722 0.2139297843261801 -0.002906776708498722 0.2139297843261801 -0.002906776708498722 0.2139297843261801
2200000000.0 0.012894143285844956 0.2074856338832004 0.012894143285844956 0.2074856338832004 0.012894143285844956 0.2074856338832004 0.012894143285844956 0.2074856338832004
2250000000.0 0.04648927788553276 0.20446421536236517 0.04648927788553276 0.20446421536236517 0.04648927788553276 0.20446421536236517 0.04648927788553276 0.20446421536236517
2300000000.0 0.05822915352934591 0.20316956636602407 0.05822915352934591 0.20316956636602407 0.05822915352934591 0.20316956636602407 0.05822915352934591 0.20316956636602407
2350000000.0 0.08832003705186352 0.190459206158595 0.08832003705186352 0.190459206158595 0.08832003705186352 0.190459206158595 0.08832003705186352 0.190459206158595
2400000000.0 0.10526356834103871 0.19152667526635797 0.10526356834103871 0.19152667526635797 0.10526356834103871 0.19152667526635797 0.10526356834103871 0.19152667526635797
2450000000.0 0.12360504707948922 0.16043001367061158 0.12360504707948922 0.16043001367061158 0.12360504707948922 0.16043001367061158 0.12360504707948922 0.16043001367061158
2500000000.0 0.14584504286757285 0.16257990189807003 0.14584504286757285 0.16257990189807003 0.14584504286757285 0.16257990189807003 0.14584504286757285 0.16257990189807003
2550000000.0 0.1544936451347967 0.13322562937686563 0.1544936451347967 0.13322562937686563 0.1544936451347967 0.13322562937686563 0.1544936451347967 0.13322562937686563
2600000000.0 0.17872283264145256 0.12740635970511593 0.17872283264145256 0.12740635970511593 0.17872283264145256 0.12740635970511593 0.17872283264145256 0.12740635970511593
2650000000.0 0.17950635677480997 0.09906318387487456 0.17950635677480997 0.09906318387487456 0.17950635677480997 0.09906318387487456 0.17950635677480997 0.09906318387487456
2700000000.0 0.2026180441974933 0.0832795314145391 0.2026180441974933 0.0832795314145391 0.2026180441974933 0.0832795314145391 0.2026180441974933 0.0832795314145391
2750000000.0 0.19947463223168582 0.058074605358347506 0.19947463223168582 0.058074605358347506 0.19947463223168582 0.058074605358347506 0.19947463223168582 0.058074605358347506
2800000000.0 0.2165121280341127 0.03800511356068828 0.2165121280341127 0.03800511356068828 0.2165121280341127 0.03800511356068828 0.2165121280341127 0.03800511356068828
2850000000.0 0.20814277657149585 0.015466492736608209 0.20814277657149585 0.015466492736608209 0.20814277657149585 0.015466492736608209 0.20814277657149585 0.015466492736608209
2900000000.0 0.2191766384279301 -0.014917163240759354 0.2191766384279301 -0.014917163240759354 0.2191766384279301 -0.014917163240759354 0.2191766384279301 -0.014917163240759354
2950000000.0 0.21376300866677195 -0.028744721158239703 0.21376300866677195 -0.028744721158239703 0.21376300866677195 -0.028744721158239703 0.21376300866677195 -0.028744721158239703
3000000000.0 0.21052247617847444 -0.061710727725624186 0.21052247617847444 -0.061710727725624186 0.21052247617847444 -0.061710727725624186 0.21052247617847444 -0.061710727725624186
3050000000.0 0.2055320673749565 -0.0735697936680972 0.2055320673749565 -0.0735697936680972 0.2055320673749565 -0.0735697936680972 0.2055320673749565 -0.0735697936680972
3100000000.0 0.1869246407509278 -0.10161390172773026 0.1869246407509278 -0.10161390172773026 0.1869246407509278 -0.10161390172773026 0.1869246407509278 -0.10161390172773026
3150000000.0 0.18869068331675462 -0.12147420021152487 0.18869068331675462 -0.12147420021152487 0.18869068331675462 -0.12147420021152487 0.18869068331675462 -0.12147420021152487
3200000000.0 0.16033387133676147 -0.13487860736031432 0.16033387133676147 -0.13487860736031432 0.16033387133676147 -0.13487860736031432 0.16033387133676147 -0.13487860736031432
3250000000.0 0.15632631116689186 -0.16599095036044065 0.15632631116689186 -0.16599095036044065 0.15632631116689186 -0.16599095036044065 0.15632631116689186 -0.16599095036044065
3300000000.0 0.12997321174192686 -0.1689008886118375 0.12997321174192686 -0.1689008886118375 0.12997321174192686 -0.1689008886118375 0.12997321174192686 -0.1689008886118375
3350000000.0 0.12087108363814351 -0.19259774836430485 0.12087108363814351 -0.19259774836430485 0.12087108363814351 -0.19259774836430485 0.12087108363814351 -0.19259774836430485
3400000000.0 0.09265025158816942 -0.19319393923672126 0.09265025158816942 -0.19319393923672126 0.09265025158816942 -0.19319393923672126 0.09265025158816942 -0.19319393923672126
3450000000.0 0.07673244725592475 -0.215793964111697 0.07673244725592475 -0.215793964111697 0.07673244725592475 -0.215793964111697 0.07673244725592475 -0.215793964111697
3500000000.0 0.05456394761477154 -0.21190099567212237 0.05456394761477154 -0.21190099567212237 0.05456394761477154 -0.21190099567212237 0.05456394761477154 -0.21190099567212237
3550000000.0 0.023202730494159288 -0.22617076763382793 0.023202730494159288 -0.22617076763382793 0.023202730494159288 -0.22617076763382793 0.023202730494159288 -0.22617076763382793
3600000000.0 0.010541587208493021 -0.22052633159554832 0.010541587208493021 -0.22052633159554832 0.010541587208493021 -0.22052633159554832 0.010541587208493021 -0.22052633159554832
3650000000.0 -0.026881784769206937 -0.2200953681857629 -0.026881784769206937 -0.2200953681857629 -0.026881784769206937 -0.2200953681857629 -0.026881784769206937 -0.2200953681857629
3700000000.0 -0.03968978385714946 -0.22434815944537823 -0.03968978385714946 -0.22434815944537823 -0.03968978385714946 -0.22434815944537823 -0.03968978385714946 -0.22434815944537823
3750000000.0 -0.06766229145228772 -0.20446394341588095 -0.06766229145228772 -0.20446394341588095 -0.06766229145228772 -0.20446394341588095 -0.06766229145228772 -0.20446394341588095
3800000000.0 -0.09005146239975202 -0.2146901173826698 -0.09005146239975202 -0.2146901173826698 -0.09005146239975202 -0.2146901173826698 -0.09005146239975202 -0.2146901173826698
3850000000.0 -0.10635131952509544 -0.18948754700926984 -0.10635131952509544 -0.18948754700926984 -0.10635131952509544 -0.18948754700926984 -0.10635131952509544 -0.18948754700926984
3900000000.0 -0.1349394482596725 -0.1897072088905887 -0.1349394482596725 -0.1897072088905887 -0.1349394482596725 -0.1897072088905887 -0.1349394482596725 -0.1897072088905887
3950000000.0 -0.14217226236554617 -0.16362872731726763 -0.14217226236554617 -0.16362872731726763 -0.14217226236554617 -0.16362872731726763 -0.14217226236554617 -0.16362872731726763
4000000000.0 -0.16802215386089014 -0.16005644873805508 -0.16802215386089014 -0.16005644873805508 -0.16802215386089014 -0.16005644873805508 -0.16802215386089014 -0.16005644873805508
4050000000.0 -0.17801940192987095 -0.13069043713607645 -0.17801940192987095 -0.13069043713607645 -0.17801940192987095 -0.13069043713607645 -0.17801940192987095 -0.13069043713607645
4100000000.0 -0.20180840931777352 -0.11768504932372881 -0.20180840931777352 -0.11768504932372881 -0.20180840931777352 -0.11768504932372881 -0.20180840931777352 -0.11768504932372881
4150000000.0 -0.2007369323582728 -0.09341115046553328 -0.2007369323582728 -0.09341115046553328 -0.2007369323582728 -0.09341115046553328 -0.2007369323582728 -0.09341115046553328
4200000000.0 -0.22319317000809358 -0.072488139563687 -0.22319317000809358 -0.072488139563687 -0.22319317000809358 -0.072488139563687 -0.22319317000809358 -0.072488139563687
4250000000.0 -0.21909813868637326 -0.053665428058849676 -0.21909813868637326 -0.053665428058849676 -0.21909813868637326 -0.053665428058849676 -0.21909813868637326 -0.053665428058849676
4300000000.0 -0.22374904634987253 -0.015186884393852594 -0.22374904634987253 -0.015186884393852594 -0.22374904634987253 -0.015186884393852594 -0.22374904634987253 -0.015186884393852594
4350000000.0 -0.234479679911701 -0.004634709160479361 -0.234479679911701 -0.004634709160479361 -0.234479679911701 -0.004634709160479361 -0.234479679911701 -0.004634709160479361
4400000000.0 -0.218437325185824 0.0261786565485444 -0.218437325185824 0.0261786565485444 -0.218437325185824 0.0261786565485444 -0.218437325185824 0.0261786565485444
4450000000.0 -0.23161784224066406 0.051027119443348395 -0.23161784224066406 0.051027119443348395 -0.23161784224066406 0.051027119443348395 -0.23161784224066406 0.051027119443348395
4500000000.0 -0.2115467665027813 0.06887886055512119 -0.2115467665027813 0.06887886055512119 -0.2115467665027813 0.06887886055512119 -0.2115467665027813 0.06887886055512119
4550000000.0 -0.212529424851573 0.10589490361004165 -0.212529424851573 0.10589490361004165 -0.212529424851573 0.10589490361004165 -0.212529424851573 0.10589490361004165
4600000000.0 -0.1931320653970395 0.11462533702439859 -0.1931320653970395 0.11462533702439859 -0.1931320653970395 0.11462533702439859 -0.1931320653970395 0.11462533702439859
4650000000.0 -0.18822474028976838 0.13749281829276414 -0.18822474028976838 0.13749281829276414 -0.18822474028976838 0.13749281829276414 -0.18822474028976838 0.13749281829276414
4700000000.0 -0.16401140564245514 0.15398212350336418 -0.16401140564245514 0.15398212350336418 -0.16401140564245514 0.15398212350336418 -0.16401140564245514 0.15398212350336418
4750000000.0 -0.15536343599953395 0.1771465649993318 -0.15536343599953395 0.1771465649993318 -0.15536343599953395 0.1771465649993318 -0.15536343599953395 0.1771465649993318
4800000000.0 -0.13129842243870155 0.1818688512384478 -0.13129842243870155 0.1818688512384478 -0.13129842243870155 0.1818688512384478 -0.13129842243870155 0.1818688512384478
4850000000.0 -0.10773442132370639 0.20701614775281466 -0.10773442132370639 0.20701614775281466 -0.10773442132370639 0.20701614775281466 -0.10773442132370639 0.20701614775281466
4900000000.0 -0.09545316921307427 0.20760981968165282 -0.09545316921307427 0.20760981968165282 -0.09545316921307427 0.20760981968165282 -0.09545316921307427 0.20760981968165282
4950000000.0 -0.06526971916898339 0.2226765447569067 -0.06526971916898339 0.2226765447569067 -0.06526971916898339 0.2226765447569067 -0.06526971916898339 0.2226765447569067
5000000000.0 -0.04701014047617474 0.2341862492303318 -0.04701014047617474 0.2341862492303318 -0.04701014047617474 0.2341862492303318 -0.04701014047617474 0.2341862492303318
5050000000.0 -0.01742173053980715 0.2232657584778379 -0.01742173053980715 0.2232657584778379 -0.01742173053980715 0.2232657584778379 -0.01742173053980715 0.2232657584778379
5100000000.0 0.008120409571438026 0.23600297523684222 0.008120409571438026 0.23600297523684222 0.008120409571438026 0.23600297523684222 0.008120409571438026 0.23600297523684222
5150000000.0 0.028332168493858976 0.22734643589266623 0.028332168493858976 0.22734643589266623 0.028332168493858976 0.22734643589266623 0.028332168493858976 0.22734643589266623
5200000000.0 0.057868677410654996 0.22624851875383686 0.057868677410654996 0.22624851875383686 0.057868677410654996 0.22624851875383686 0.057868677410654996 0.22624851875383686
5250000000.0 0.08057260322727434 0.21638105611260672 0.08057260322727434 0.21638105611260672 0.08057260322727434 0.21638105611260672 0.08057260322727434 0.21638105611260672
5300000000.0 0.09916536663704059 0.2130674744432413 0.09916536663704059 0.2130674744432413 0.09916536663704059 0.2130674744432413 0.09916536663704059 0.2130674744432413
5350000000.0 0.12354500619670275 0.1903449037048827 0.12354500619670275 0.1903449037048827 0.12354500619670275 0.1903449037048827 0.12354500619670275 0.1903449037048827
5400000000.0 0.15207328983561727 0.18341743560662419 0.15207328983561727 0.18341743560662419 0.15207328983561727 0.18341743560662419 0.15207328983561727 0.18341743560662419
5450000000.0 0.1521123861898177 0.15980228893069556 0.1521123861898177 0.15980228893069556 0.1521123861898177 0.15980228893069556 0.1521123861898177 0.15980228893069556
5500000000.0 0.18704366358848204 0.14775666667534454 0.18704366358848204 0.14775666667534454 0.18704366358848204 0.14775666667534454 0.18704366358848204 0.14775666667534454
5550000000.0 0.19114272702773058 0.13355531642620527 0.19114272702773058 0.13355531642620527 0.19114272702773058 0.13355531642620527 0.19114272702773058 0.13355531642620527
5600000000.0 0.2076794671591889 0.10018827178174673 0.2076794671591889 0.10018827178174673 0.2076794671591889 0.10018827178174673 0.2076794671591889 0.10018827178174673
5650000000.0 0.22260852600756817 0.08730292189029368 0.22260852600756817 0.08730292189029368 0.22260852600756817 0.08730292189029368 0.22260852600756817 0.08730292189029368
5700000000.0 0.22117726265319304 0.059216084834073986 0.22117726265319304 0.059216084834073986 0.22117726265319304 0.059216084834073986 0.22117726265319304 0.059216084834073986
5750000000.0 0.23663750975739525 0.03308762461111521 0.23663750975739525 0.03308762461111521 0.23663750975739525 0.03308762461111521 0.23663750975739525 0.03308762461111521
5800000000.0 0.2322255016800081 0.011669054645006376 0.2322255016800081 0.011669054645006376 0.2322255016800081 0.011669054645006376 0.2322255016800081 0.011669054645006376
5850000000.0 0.2358171632530646 -0.014220063557638577 0.2358171632530646 -0.014220063557638577 0.2358171632530646 -0.014220063557638577 0.2358171632530646 -0.014220063557638577
5900000000.0 0.23079297765652546 -0.04335054140579462 0.23079297765652546 -0.04335054140579462 0.23079297765652546 -0.04335054140579462 0.23079297765652546 -0.04335054140579462
5950000000.0 0.23315387099230958 -0.057476071445601434 0.23315387099230958 -0.057476071445601434 0.23315387099230958 -0.057476071445601434 0.23315387099230958 -0.057476071445601434
6000000000.0 0.2128054943736143 -0.08828710682305856 0.2128054943736143 -0.08828710682305856 0.2128054943736143 -0.08828710682305856 0.2128054943736143 -0.08828710682305856
