! Created with skrf 2.0.0 (http://scikit-rf.org).
# Hz S RI R 50.0 
!freq ReS11 ImS11 ReS21 ImS21 ReS12 ImS12 ReS22 ImS22
100000000.0 -0.15305032182740294 0.03627312295764083 -0.15305032182740294 0.03627312295764083 -0.15305032182740294 0.03627312295764083 -0.15305032182740294 0.03627312295764083
150000000.0 -0.15648137716368454 0.06601660200770564 -0.15648137716368454 0.06601660200770564 -0.15648137716368454 0.06601660200770564 -0.15648137716368454 0.06601660200770564
200000000.0 -0.13830094322760703 0.07287117375409774 -0.13830094322760703 0.07287117375409774 -0.13830094322760703 0.07287117375409774 -0.13830094322760703 0.07287117375409774
250000000.0 -0.131035658262843 0.1021115043898123 -0.131035658262843 0.1021115043898123 -0.131035658262843 0.1021115043898123 -0.131035658262843 0.1021115043898123
300000000.0 -0.11765258773465583 0.10629362499027412 -0.11765258773465583 0.10629362499027412 -0.11765258773465583 0.10629362499027412 -0.11765258773465583 0.10629362499027412
350000000.0 -0.09903868512331997 0.12895124149344092 -0.09903868512331997 0.12895124149344092 -0.09903868512331997 0.12895124149344092 -0.09903868512331997 0.12895124149344092
400000000.0 -0.08984103738867281 0.13429835626127393 -0.08984103738867281 0.13429835626127393 -0.08984103738867281 0.13429835626127393 -0.08984103738867281 0.13429835626127393
450000000.0 -0.060931921334281665 0.14263659975200127 -0.060931921334281665 0.14263659975200127 -0.060931921334281665 0.14263659975200127 -0.060931921334281665 0.14263659975200127
500000000.0 -0.05430861517290089 0.15268951926513216 -0.05430861517290089 0.15268951926513216 -0.05430861517290089 0.15268951926513216 -0.05430861517290089 0.15268951926513216
550000000.0 -0.025221538843593145 0.1464769586022664 -0.025221538843593145 0.1464769586022664 -0.025221538843593145 0.1464769586022664 -0.025221538843593145 0.1464769586022664
600000000.0 -0.015282820093413382 0.15942997342048768 -0.015282820093413382 0.15942997342048768 -0.015282820093413382 0.15942997342048768 -0.015282820093413382 0.15942997342048768
650000000.0 0.006944485430825532 0.1427661801453771 0.006944485430825532 0.1427661801453771 0.006944485430825532 0.1427661801453771 0.006944485430825532 0.1427661801453771
700000000.0 0.021315234929638556 0.15489059942453498 0.021315234929638556 0.15489059942453498 0.021315234929638556 0.15489059942453498 0.021315234929638556 0.15489059942453498
750000000.0 0.031230025637179016 0.13543949678272582 0.031230025637179016 0.13543949678272582 0.031230025637179016 0.13543949678272582 0.031230025637179016 0.13543949678272582
800000000.0 0.049630056901049956 0.1466122473957158 0.049630056901049956 0.1466122473957158 0.049630056901049956 0.1466122473957158 0.049630056901049956 0.1466122473957158
850000000.0 0.05377543779799525 0.13263033701461593 0.05377543779799525 0.13263033701461593 0.05377543779799525 0.13263033701461593 0.05377543779799525 0.13263033701461593
900000000.0 0.07960930457889086 0.13504598529214396 0.07960930457889086 0.13504598529214396 0.07960930457889086 0.13504598529214396 0.07960930457889086 0.13504598529214396
950000000.0 0.08337291008411124 0.12903126220798136 0.08337291008411124 0.12903126220798136 0.08337291008411124 0.12903126220798136 0.08337291008411124 0.12903126220798136
1000000000.0 0.1090464040584341 0.11542361387239121 0.1090464040584341 0.11542361387239121 0.1090464040584341 0.11542361387239121 0.1090464040584341 0.11542361387239121
1050000000.0 0.11727608163292971 0.11465737363185491 0.11727608163292971 0.11465737363185491 0.11727608163292971 0.11465737363185491 0.11727608163292971 0.11465737363185491
1100000000.0 0.1323952817416552 0.0884890510838752 0.1323952817416552 0.0884890510838752 0.1323952817416552 0.0884890510838752 0.1323952817416552 0.0884890510838752
1150000000.0 0.1473750878046246 0.08758615794467038 0.1473750878046246 0.08758615794467038 0.1473750878046246 0.08758615794467038 0.1473750878046246 0.08758615794467038
1200000000.0 0.14840541613829486 0.05749236761829087 0.14840541613829486 0.05749236761829087 0.14840541613829486 0.05749236761829087 0.14840541613829486 0.05749236761829087
1250000000.0 0.16834503488336075 0.05187361019381229 0.16834503488336075 0.05187361019381229 0.16834503488336075 0.05187361019381229 0.16834503488336075 0.05187361019381229
1300000000.0 0.1575610478679696 0.02539720672250716 0.1575610478679696 0.02539720672250716 0.1575610478679696 0.02539720672250716 0.1575610478679696 0.02539720672250716
1350000000.0 0.17896607371732393 0.009279259433795305 0.17896607371732393 0.009279259433795305 0.17896607371732393 0.009279259433795305 0.17896607371732393 0.009279259433795305
1400000000.0 0.16214359748632376 -0.00901704591413926 0.16214359748632376 -0.00901704591413926 0.16214359748632376 -0.00901704591413926 0.16214359748632376 -0.00901704591413926
1450000000.0 0.17667665010076222 -0.03246869028136852 0.17667665010076222 -0.03246869028136852 0.17667665010076222 -0.03246869028136852 0.17667665010076222 -0.03246869028136852
1500000000.0 0.16110582444765637 -0.043287737806856436 0.16110582444765637 -0.043287737806856436 0.16110582444765637 -0.043287737806856436 0.16110582444765637 -0.043287737806856436
1550000000.0 0.16195192834244346 -0.07275420560092957 0.16195192834244346 -0.07275420560092957 0.16195192834244346 -0.07275420560092957 0.16195192834244346 -0.07275420560092957
1600000000.0 0.15306430370064847 -0.07872637560765242 0.15306430370064847 -0.07872637560765242 0.15306430370064847 -0.07872637560765242 0.15306430370064847 -0.07872637560765242
1650000000.0 0.1380192704551487 -0.10619491436125827 0.1380192704551487 -0.10619491436125827 0.1380192704551487 -0.10619491436125827 0.1380192704551487 -0.10619491436125827
1700000000.0 0.13384672098595815 -0.11214459149893925 0.13384672098595815 -0.11214459149893925 0.13384672098595815 -0.11214459149893925 0.13384672098595815 -0.11214459149893925
1750000000.0 0.10806480219427979 -0.1302311840970719 0.10806480219427979 -0.1302311840970719 0.10806480219427979 -0.1302311840970719 0.10806480219427979 -0.1302311840970719
1800000000.0 0.10819401209601089 -0.14433582114715995 0.10819401209601089 -0.14433582114715995 0.10819401209601089 -0.14433582114715995 0.10819401209601089 -0.14433582114715995
1850000000.0 0.07730477467198861 -0.15158341520151775 0.07730477467198861 -0.15158341520151775 0.07730477467198861 -0.15158341520151775 0.07730477467198861 -0.15158341520151775
1900000000.0 0.07292515100558038 -0.16585592074848451 0.07292515100558038 -0.16585592074848451 0.07292515100558038 -0.16585592074848451 0.07292515100558038 -0.16585592074848451
1950000000.0 0.04479342682415137 -0.15969436809749518 0.04479342682415137 -0.15969436809749518 0.04479342682415137 -0.15969436809749518 0.04479342682415137 -0.15969436809749518
2000000000.0 0.03112055719719241 -0.178458447739383 0.03112055719719241 -0.178458447739383 0.03112055719719241 -0.178458447739383 0.03112055719719241 -0.178458447739383
2050000000.0 0.010319564636268132 -0.16678766584467777 0.010319564636268132 -0.16678766584467777 0.010319564636268132 -0.16678766584467777 0.010319564636268132 -0.16678766584467777
2100000000.0 -0.012289223774437022 -0.17887668241256785 -0.012289223774437022 -0.17887668241256785 -0.012289223774437022 -0.17887668241256785 -0.012289223774437022 -0.17887668241256785
2150000000.0 -0.02518524068871227 -0.1668650289567301 -0.02518524068871227 -0.1668650289567301 -0.02518524068871227 -0.1668650289567301 -0.02518524068871227 -0.1668650289567301
2200000000.0 -0.05088153337509922 -0.16819196033211295 -0.05088153337509922 -0.16819196033211295 -0.05088153337509922 -0.16819196033211295 -0.05088153337509922 -0.16819196033211295
2250000000.0 -0.0595232722675072 -0.16044929974094863 -0.0595232722675072 -0.16044929974094863 -0.0595232722675072 -0.16044929974094863 -0.0595232722675072 -0.16044929974094863
2300000000.0 -0.08706479118611475 -0.14905291440766277 -0.08706479118611475 -0.14905291440766277 -0.08706479118611475 -0.14905291440766277 -0.08706479118611475 -0.14905291440766277
2350000000.0 -0.09338591274070393 -0.1427896150390419 -0.09338591274070393 -0.1427896150390419 -0.09338591274070393 -0.1427896150390419 -0.09338591274070393 -0.1427896150390419
2400000000.0 -0.11449248142455988 -0.12014596414033371 -0.11449248142455988 -0.12014596414033371 -0.11449248142455988 -0.12014596414033371 -0.11449248142455988 -0.12014596414033371
2450000000.0 -0.12674645925987818 -0.12195653119142186 -0.12674645925987818 -0.12195653119142186 -0.12674645925987818 -0.12195653119142186 -0.12674645925987818 -0.12195653119142186
2500000000.0 -0.13640976449184633 -0.09385820657053807 -0.13640976449184633 -0.09385820657053807 -0.13640976449184633 -0.09385820657053807 -0.13640976449184633 -0.09385820657053807
2550000000.0 -0.1500155842096868 -0.08909366761489379 -0.1500155842096868 -0.08909366761489379 -0.1500155842096868 -0.08909366761489379 -0.1500155842096868 -0.08909366761489379
2600000000.0 -0.1520468425125419 -0.06129766970927995 -0.1520468425125419 -0.06129766970927995 -0.1520468425125419 -0.06129766970927995 -0.1520468425125419 -0.06129766970927995
2650000000.0 -0.16719937755932898 -0.049230679432269234 -0.16719937755932898 -0.049230679432269234 -0.16719937755932898 -0.049230679432269234 -0.16719937755932898 -0.049230679432269234
2700000000.0 -0.16060140874425266 -0.02726994399979189 -0.16060140874425266 -0.02726994399979189 -0.16060140874425266 -0.02726994399979189 -0.16060140874425266 -0.02726994399979189
2750000000.0 -0.17141672665179714 -0.011365728042052192 -0.17141672665179714 -0.011365728042052192 -0.17141672665179714 -0.011365728042052192 -0.17141672665179714 -0.011365728042052192
2800000000.0 -0.16088012207248437 0.009118856401010629 -0.16088012207248437 0.009118856401010629 -0.16088012207248437 0.009118856401010629 -0.16088012207248437 0.009118856401010629
2850000000.0 -0.16869416780275714 0.02818155235272481 -0.16869416780275714 0.02818155235272481 -0.16869416780275714 0.02818155235272481 -0.16869416780275714 0.02818155235272481
2900000000.0 -0.1542688183495582 0.04108625683905359 -0.1542688183495582 0.04108625683905359 -0.1542688183495582 0.04108625683905359 -0.1542688183495582 0.04108625683905359
2950000000.0 -0.15101387471456637 0.06833894550401182 -0.15101387471456637 0.06833894550401182 -0.15101387471456637 0.06833894550401182 -0.15101387471456637 0.06833894550401182
3000000000.0 -0.14126350683787628 0.07257927784729903 -0.14126350683787628 0.07257927784729903 -0.14126350683787628 0.07257927784729903 -0.14126350683787628 0.07257927784729903
3050000000.0 -0.12976066736897832 0.09953593777550615 -0.12976066736897832 0.09953593777550615 -0.12976066736897832 0.09953593777550615 -0.12976066736897832 0.09953593777550615
3100000000.0 -0.124681812758237 0.10607383639007048 -0.124681812758237 0.10607383639007048 -0.124681812758237 0.10607383639007048 -0.124681812758237 0.10607383639007048
3150000000.0 -0.10027939559103914 0.12197924920806169 -0.10027939559103914 0.12197924920806169 -0.10027939559103914 0.12197924920806169 -0.10027939559103914 0.12197924920806169
3200000000.0 -0.09703973445770137 0.13570662394879118 -0.09703973445770137 0.13570662394879118 -0.09703973445770137 0.13570662394879118 -0.09703973445770137 0.13570662394879118
3250000000.0 -0.07005704184723306 0.13563170397053143 -0.07005704184723306 0.13563170397053143 -0.07005704184723306 0.13563170397053143 -0.07005704184723306 0.13563170397053143
3300000000.0 -0.0631872115194207 0.1512669384382351 -0.0631872115194207 0.1512669384382351 -0.0631872115194207 0.1512669384382351 -0.0631872115194207 0.1512669384382351
3350000000.0 -0.03614762677228778 0.1498430085235283 -0.03614762677228778 0.1498430085235283 -0.03614762677228778 0.1498430085235283 -0.03614762677228778 0.1498430085235283
3400000000.0 -0.02483980599202613 0.1617725570992186 -0.02483980599202613 0.1617725570992186 -0.02483980599202613 0.1617725570992186 -0.02483980599202613 0.1617725570992186
3450000000.0 -0.0012108394710416742 0.15160173641525715 -0.0012108394710416742 0.15160173641525715 -0.0012108394710416742 0.15160173641525715 -0.0012108394710416742 0.15160173641525715
3500000000.0 0.018087526368884863 0.16065908297119327 0.018087526368884863 0.16065908297119327 0.018087526368884863 0.16065908297119327 0.018087526368884863 0.16065908297119327
3550000000.0 0.029211272479369263 0.1480263317334695 0.029211272479369263 0.1480263317334695 0.029211272479369263 0.1480263317334695 0.029211272479369263 0.1480263317334695
3600000000.0 0.05629443176830132 0.1509473217496913 0.05629443176830132 0.1509473217496913 0.05629443176830132 0.1509473217496913 0.05629443176830132 0.1509473217496913
3650000000.0 0.06092279237088928 0.1419417523827816 0.06092279237088928 0.1419417523827816 0.06092279237088928 0.1419417523827816 0.06092279237088928 0.1419417523827816
3700000000.0 0.08810536463155563 0.12838850585509515 0.08810536463155563 0.12838850585509515 0.08810536463155563 0.12838850585509515 0.08810536463155563 0.12838850585509515
3750000000.0 0.09570286972171717 0.1284578306193626 0.09570286972171717 0.1284578306193626 0.09570286972171717 0.1284578306193626 0.09570286972171717 0.1284578306193626
3800000000.0 0.11120275844085749 0.10173376700559204 0.11120275844085749 0.10173376700559204 0.11120275844085749 0.10173376700559204 0.11120275844085749 0.10173376700559204
3850000000.0 0.1252505212251818 0.1004984696382707 0.1252505212251818 0.1004984696382707 0.1252505212251818 0.1004984696382707 0.1252505212251818 0.1004984696382707
3900000000.0 0.13011044510000497 0.07463299512565513 0.13011044510000497 0.07463299512565513 0.13011044510000497 0.07463299512565513 0.13011044510000497 0.07463299512565513
3950000000.0 0.1490915289353015 0.06571570183053983 0.1490915289353015 0.06571570183053983 0.1490915289353015 0.06571570183053983 0.1490915289353015 0.06571570183053983
4000000000.0 0.14678254127687027 0.041599538277720484 0.14678254127687027 0.041599538277720484 0.14678254127687027 0.041599538277720484 0.14678254127687027 0.041599538277720484
4050000000.0 0.1558382550006816 0.0319087386957339 0.1558382550006816 0.0319087386957339 0.1558382550006816 0.0319087386957339 0.1558382550006816 0.0319087386957339
4100000000.0 0.1487468333837522 0.007761187451845713 0.1487468333837522 0.007761187451845713 0.1487468333837522 0.007761187451845713 0.1487468333837522 0.007761187451845713
4150000000.0 0.16048974497133225 -0.007543408002135616 0.16048974497133225 -0.007543408002135616 0.16048974497133225 -0.007543408002135616 0.16048974497133225 -0.007543408002135616
4200000000.0 0.1455366070133908 -0.025146802368443567 0.1455366070133908 -0.025146802368443567 0.1455366070133908 -0.025146802368443567 0.1455366070133908 -0.025146802368443567
4250000000.0 0.1527094055827104 -0.047866272036450636 0.1527094055827104 -0.047866272036450636 0.1527094055827104 -0.047866272036450636 0.1527094055827104 -0.047866272036450636
4300000000.0 0.1436326727658566 -0.05285317123708323 0.1436326727658566 -0.05285317123708323 0.1436326727658566 -0.05285317123708323 0.1436326727658566 -0.05285317123708323
4350000000.0 0.12998010237814367 -0.0815706116532554 0.12998010237814367 -0.0815706116532554 0.12998010237814367 -0.0815706116532554 0.12998010237814367 -0.0815706116532554
4400000000.0 0.13158244980810932 -0.08898196082521767 0.13158244980810932 -0.08898196082521767 0.13158244980810932 -0.08898196082521767 0.13158244980810932 -0.08898196082521767
4450000000.0 0.10644248411762706 -0.10446085619194992 0.10644248411762706 -0.10446085619194992 0.10644248411762706 -0.10446085619194992 0.10644248411762706 -0.10446085619194992
4500000000.0 0.10562245781083461 -0.11974651604082212 0.10562245781083461 -0.11974651604082212 0.10562245781083461 -0.11974651604082212 0.10562245781083461 -0.11974651604082212
4550000000.0 0.08029144940675612 -0.12152712459767955 0.08029144940675612 -0.12152712459767955 0.08029144940675612 -0.12152712459767955 0.08029144940675612 -0.12152712459767955
4600000000.0 0.07405847918941168 -0.1400364162584288 0.07405847918941168 -0.1400364162584288 0.07405847918941168 -0.1400364162584288 0.07405847918941168 -0.1400364162584288
4650000000.0 0.051027162850361206 -0.14525796674189553 0.051027162850361206 -0.14525796674189553 0.051027162850361206 -0.14525796674189553 0.051027162850361206 -0.14525796674189553
4700000000.0 0.04126436696020471 -0.152917828746557 0.04126436696020471 -0.152917828746557 0.04126436696020471 -0.152917828746557 0.04126436696020471 -0.152917828746557
4750000000.0 0.015846493894827025 -0.1505251990114422 0.015846493894827025 -0.1505251990114422 0.015846493894827025 -0.1505251990114422 0.015846493894827025 -0.1505251990114422
4800000000.0 0.0024676236912886448 -0.16213829544562577 0.0024676236912886448 -0.16213829544562577 0.0024676236912886448 -0.16213829544562577 0.0024676236912886448 -0.16213829544562577
4850000000.0 -0.013996399756524891 -0.14934370019743995 -0.013996399756524891 -0.14934370019743995 -0.013996399756524891 -0.14934370019743995 -0.013996399756524891 -0.14934370019743995
4900000000.0 -0.03784600264752469 -0.15722640831103926 -0.03784600264752469 -0.15722640831103926 -0.03784600264752469 -0.15722640831103926 -0.03784600264752469 -0.15722640831103926
4950000000.0 -0.048539691795852484 -0.1457995676766298 -0.048539691795852484 -0.1457995676766298 -0.048539691795852484 -0.1457995676766298 -0.048539691795852484 -0.1457995676766298
5000000000.0 -0.07428398676061192 -0.13484056074624573 -0.07428398676061192 -0.13484056074624573 -0.07428398676061192 -0.13484056074624573 -0.07428398676061192 -0.13484056074624573
5050000000.0 -0.08323381730906142 -0.1382236459136229 -0.08323381730906142 -0.1382236459136229 -0.08323381730906142 -0.1382236459136229 -0.08323381730906142 -0.1382236459136229
5100000000.0 -0.09850477672747886 -0.11711460068698364 -0.09850477672747886 -0.11711460068698364 -0.09850477672747886 -0.11711460068698364 -0.09850477672747886 -0.11711460068698364
5150000000.0 -0.1147104833734302 -0.11179383963749542 -0.1147104833734302 -0.11179383963749542 -0.1147104833734302 -0.11179383963749542 -0.1147104833734302 -0.11179383963749542
5200000000.0 -0.12363055462410032 -0.09435600558574526 -0.12363055462410032 -0.09435600558574526 -0.12363055462410032 -0.09435600558574526 -0.12363055462410032 -0.09435600558574526
5250000000.0 -0.13373480896613513 -0.08211481010114816 -0.13373480896613513 -0.08211481010114816 -0.13373480896613513 -0.08211481010114816 -0.13373480896613513 -0.08211481010114816
5300000000.0 -0.146520119202943 -0.06187543509909652 -0.146520119202943 -0.06187543509909652 -0.146520119202943 -0.06187543509909652 -0.146520119202943 -0.06187543509909652
5350000000.0 -0.14988679565911164 -0.054225462490357326 -0.14988679565911164 -0.054225462490357326 -0.14988679565911164 -0.054225462490357326 -0.14988679565911164 -0.054225462490357326
5400000000.0 -0.14936095504009078 -0.027169151778800044 -0.14936095504009078 -0.027169151778800044 -0.14936095504009078 -0.027169151778800044 -0.14936095504009078 -0.027169151778800044
5450000000.0 -0.16585582290722442 -0.022038650447032446 -0.16585582290722442 -0.022038650447032446 -0.16585582290722442 -0.022038650447032446 -0.16585582290722442 -0.022038650447032446
5500000000.0 -0.1517500515740072 0.005923750817218799 -0.1517500515740072 0.005923750817218799 -0.1517500515740072 0.005923750817218799 -0.1517500515740072 0.005923750817218799
5550000000.0 -0.16135495014106208 0.028282899463561297 -0.16135495014106208 0.028282899463561297 -0.16135495014106208 0.028282899463561297 -0.16135495014106208 0.028282899463561297
5600000000.0 -0.1526242224627128 0.03668472424678202 -0.1526242224627128 0.03668472424678202 -0.1526242224627128 0.03668472424678202 -0.1526242224627128 0.03668472424678202
5650000000.0 -0.1442153917207666 0.06313448460852553 -0.1442153917207666 0.06313448460852553 -0.1442153917207666 0.06313448460852553 -0.1442153917207666 0.06313448460852553
5700000000.0 -0.1441344050184239 0.07513718757694976 -0.1441344050184239 0.07513718757694976 -0.1441344050184239 0.07513718757694976 -0.1441344050184239 0.07513718757694976
5750000000.0 -0.12609132473607912 0.09111240638745338 -0.12609132473607912 0.09111240638745338 -0.12609132473607912 0.09111240638745338 -0.12609132473607912 0.09111240638745338
5800000000.0 -0.12079750256397365 0.10792808371667506 -0.12079750256397365 0.10792808371667506 -0.12079750256397365 0.10792808371667506 -0.12079750256397365 0.10792808371667506
5850000000.0 -0.10503042746313113 0.12082804123286131 -0.10503042746313113 0.12082804123286131 -0.10503042746313113 0.12082804123286131 -0.10503042746313113 0.12082804123286131
5900000000.0 -0.09284333877584931 0.12810509104208098 -0.09284333877584931 0.12810509104208098 -0.09284333877584931 0.12810509104208098 -0.09284333877584931 0.12810509104208098
5950000000.0 -0.07199428215260498 0.14683099398272348 -0.07199428215260498 0.14683099398272348 -0.07199428215260498 0.14683099398272348 -0.07199428215260498 0.14683099398272348
6000000000.0 -0.06468891172388179 0.15025155393559975 -0.06468891172388179 0.15025155393559975 -0.06468891172388179 0.15025155393559975 -0.06468891172388179 0.15025155393559975
