! Created with skrf 2.0.0 (http://scikit-rf.org).
# Hz S RI R 50.0 
!freq ReS11 ImS11
!
100000000.0 0.9762223367049876 -0.21320684193670403
150000000.0 0.9459274623105 -0.3159895832652571
200000000.0 0.907371189146999 -0.4163659638026967
250000000.0 0.8565958831109568 -0.5103823463756235
300000000.0 0.7965122380639766 -0.6002019235842951
350000000.0 0.7277657599546704 -0.6814671327378574
400000000.0 0.6492949680687115 -0.7559872613893844
450000000.0 0.5642611584062031 -0.8211919549353371
500000000.0 0.47128947830732404 -0.876257906837728
550000000.0 0.374899328511108 -0.9224299357904233
600000000.0 0.27243988195220625 -0.955142545909411
650000000.0 0.16798803989878874 -0.9798169237234196
700000000.0 0.061155617213303225 -0.9889492551487575
750000000.0 -0.04661262068813468 -0.9907422176620595
800000000.0 -0.15249891242204922 -0.9770426867301429
850000000.0 -0.25744231656555844 -0.9553393398936387
900000000.0 -0.35791691042731527 -0.9192816657054552
950000000.0 -0.45613203509241934 -0.8747663501343479
1000000000.0 -0.5461508987709883 -0.8195966754300986
1050000000.0 -0.631668164336129 -0.7539341549116065
1100000000.0 -0.70818017730585 -0.681452948708091
1150000000.0 -0.7766912442236663 -0.5986400619994092
1200000000.0 -0.8369654967357808 -0.5115994940484133
1250000000.0 -0.8849331704219495 -0.41583835698907584
1300000000.0 -0.9252165294901944 -0.31828629115891377
1350000000.0 -0.950946060510028 -0.21463593962051236
1400000000.0 -0.9695552018510011 -0.11013936497719984
1450000000.0 -0.9723232821492659 -0.004658041890038225
1500000000.0 -0.9678823541581224 0.10064340868025803
1550000000.0 -0.9481977410673224 0.2047522314607779
1600000000.0 -0.9194044200432029 0.30671689571010724
1650000000.0 -0.879693107383601 0.4031899828416727
1700000000.0 -0.8288698339253971 0.4959367250747102
1750000000.0 -0.7705637825210858 0.5817971785467971
1800000000.0 -0.699913825322751 0.6601755087765672
1850000000.0 -0.6258620164845218 0.7322234013041674
1900000000.0 -0.5409720041429336 0.7936785236484128
1950000000.0 -0.4520755729247347 0.8477942716578264
2000000000.0 -0.3568063820280821 0.8886250826398521
2050000000.0 -0.2595364408587517 0.922856354186546
2100000000.0 -0.15807154408114196 0.9427694843656215
2150000000.0 -0.055242166013639085 0.9545582210706189
2200000000.0 0.04693518276103499 0.9528327229138173
2250000000.0 0.1507616403012401 0.9414997676553071
2300000000.0 0.24937218094159969 0.9199173237722359
2350000000.0 0.3471651018050285 0.8867394365764932
2400000000.0 0.4389560239709166 0.8443390956882776
2450000000.0 0.5273954998597598 0.7906187898562657
2500000000.0 0.6099624317156451 0.7302848866817377
2550000000.0 0.682721392335329 0.6594587752958108
2600000000.0 0.749305146399559 0.5839548665754942
2650000000.0 0.8066397920404129 0.4978971396094971
2700000000.0 0.8564958114986534 0.4098151095736193
2750000000.0 0.8937738446093638 0.3150409972347441
2800000000.0 0.9234466713993523 0.21881842894277917
2850000000.0 0.9385924812331137 0.11908816688415269
2900000000.0 0.9476032010056736 0.016623742193227337
2950000000.0 0.9433259671644544 -0.08358388801334883
3000000000.0 0.9285244686449725 -0.18487673735246282
3050000000.0 0.9037740789807539 -0.28223515143882166
3100000000.0 0.8677354071820486 -0.3773855599852148
3150000000.0 0.8238140846257965 -0.46767767426409856
3200000000.0 0.7672468439669943 -0.5525281774085273
3250000000.0 0.7056665826630385 -0.6317817860142239
3300000000.0 0.6328380704230552 -0.7022278256468929
3350000000.0 0.555474024266274 -0.7670814093058655
3400000000.0 0.4687137752109421 -0.8220316027938466
3450000000.0 0.3818679569719663 -0.8672155417498832
3500000000.0 0.28527210417626975 -0.9018315774674174
3550000000.0 0.18658709918542254 -0.9279354719944128
3600000000.0 0.08801718788837934 -0.9423045977502652
3650000000.0 -0.014483818271390005 -0.9460052271224089
3700000000.0 -0.11391025079159725 -0.9395272811768436
3750000000.0 -0.21459017101287362 -0.9212229220208532
3800000000.0 -0.31088142848229555 -0.8945796099033038
3850000000.0 -0.40502597150717895 -0.8545824857368217
3900000000.0 -0.4916467338848987 -0.8092749255604755
3950000000.0 -0.5770503515882681 -0.7489539291757786
4000000000.0 -0.6540103836348136 -0.6852840526437398
4050000000.0 -0.7225808480233024 -0.6097023542420736
4100000000.0 -0.7844321568530214 -0.5304796946513631
4150000000.0 -0.8356024609594129 -0.4429660624177884
4200000000.0 -0.8786363357162459 -0.3511914859727762
4250000000.0 -0.9103398642913295 -0.2558298597571372
4300000000.0 -0.9326104591938805 -0.15583966915898217
4350000000.0 -0.9438802566311041 -0.05687571773059722
4400000000.0 -0.9443046063624521 0.04548691899425321
4450000000.0 -0.9346422171898492 0.1447141052516062
4500000000.0 -0.9135099548191523 0.2437008027610833
4550000000.0 -0.8819947582091159 0.34003681953960946
4600000000.0 -0.839483124268798 0.4322555487746967
4650000000.0 -0.7904917307941618 0.5186532341336638
4700000000.0 -0.7289737378982141 0.5999068489413757
4750000000.0 -0.6627596018046703 0.6737020532493051
4800000000.0 -0.5854258939998993 0.7400485795548432
4850000000.0 -0.502869265495545 0.7988924486177483
4900000000.0 -0.4156985078391268 0.846932442564127
4950000000.0 -0.3217440083968429 0.8868883758191688
5000000000.0 -0.2266401360927748 0.9159637706870798
5050000000.0 -0.1269825713229634 0.9339287637172049
5100000000.0 -0.028074403231356446 0.9428416792029445
5150000000.0 0.07350642698873429 0.9393925590522189
5200000000.0 0.17248240038390852 0.9267909008551517
5250000000.0 0.27018465370541744 0.9021525755911574
5300000000.0 0.36417168841239406 0.8691139543058017
5350000000.0 0.454290335596995 0.824550457686939
5400000000.0 0.5399923265717245 0.7715336089469146
5450000000.0 0.6185021065817291 0.709499718337639
5500000000.0 0.69135198823339 0.6399906600410613
5550000000.0 0.7540748782172074 0.562886871879218
5600000000.0 0.810255863662214 0.4790645441372709
5650000000.0 0.8558775637920305 0.39082887744087075
5700000000.0 0.8930071557474879 0.297153500782976
5750000000.0 0.9196163693843589 0.19993099826983773
5800000000.0 0.9349124394678172 0.10062799837236479
5850000000.0 0.9404953755989655 0.0017164438994520714
5900000000.0 0.9347594666789487 -0.09927380508601279
5950000000.0 0.9191581563191067 -0.19704180263519985
6000000000.0 0.8921583822924694 -0.29471149238216066
