! Created with skrf 2.0.0 (http://scikit-rf.org).
# Hz S RI R 50.0 
!freq ReS11 ImS11 ReS21 ImS21 ReS12 ImS12 ReS22 ImS22
100000000.0 0.23112693475720045 -0.05210834753949283 0.23112693475720045 -0.05210834753949283 0.23112693475720045 -0.05210834753949283 0.23112693475720045 -0.05210834753949283
150000000.0 0.2102459402056204 -0.06421125848230624 0.2102459402056204 -0.06421125848230624 0.2102459402056204 -0.06421125848230624 0.2102459402056204 -0.06421125848230624
200000000.0 0.2142153403700616 -0.09982776412299303 0.2142153403700616 -0.09982776412299303 0.2142153403700616 -0.09982776412299303 0.2142153403700616 -0.09982776412299303
250000000.0 0.19664322582062066 -0.10725149464634025 0.19664322582062066 -0.10725149464634025 0.19664322582062066 -0.10725149464634025 0.19664322582062066 -0.10725149464634025
300000000.0 0.18531948124333295 -0.13968990352452268 0.18531948124333295 -0.13968990352452268 0.18531948124333295 -0.13968990352452268 0.18531948124333295 -0.13968990352452268
350000000.0 0.17349023595775942 -0.14743748691877134 0.17349023595775942 -0.14743748691877134 0.17349023595775942 -0.14743748691877134 0.17349023595775942 -0.14743748691877134
400000000.0 0.14814590192839683 -0.17041733469063886 0.14814590192839683 -0.17041733469063886 0.14814590192839683 -0.17041733469063886 0.14814590192839683 -0.17041733469063886
450000000.0 0.14157498676990096 -0.1872062592393935 0.14157498676990096 -0.1872062592393935 0.14157498676990096 -0.1872062592393935 0.14157498676990096 -0.1872062592393935
500000000.0 0.10868173240474321 -0.19389370172548898 0.10868173240474321 -0.19389370172548898 0.10868173240474321 -0.19389370172548898 0.10868173240474321 -0.19389370172548898
550000000.0 0.09903684772980899 -0.21806902634198605 0.09903684772980899 -0.21806902634198605 0.09903684772980899 -0.21806902634198605 0.09903684772980899 -0.21806902634198605
600000000.0 0.06699698722305134 -0.21014348972063943 0.06699698722305134 -0.21014348972063943 0.06699698722305134 -0.21014348972063943 0.06699698722305134 -0.21014348972063943
650000000.0 0.04923234065961036 -0.23690614042077876 0.04923234065961036 -0.23690614042077876 0.04923234065961036 -0.23690614042077876 0.04923234065961036 -0.23690614042077876
700000000.0 0.022808654230429166 -0.22010085171348104 0.022808654230429166 -0.22010085171348104 0.022808654230429166 -0.22010085171348104 0.022808654230429166 -0.22010085171348104
750000000.0 -0.007215562175889055 -0.2421220279793537 -0.007215562175889055 -0.2421220279793537 -0.007215562175889055 -0.2421220279793537 -0.007215562175889055 -0.2421220279793537
800000000.0 -0.026442222135250715 -0.22042476621679566 -0.026442222135250715 -0.22042476621679566 -0.026442222135250715 -0.22042476621679566 -0.026442222135250715 -0.22042476621679566
850000000.0 -0.06334959678498506 -0.2284301473950454 -0.06334959678498506 -0.2284301473950454 -0.06334959678498506 -0.2284301473950454 -0.06334959678498506 -0.2284301473950454
900000000.0 -0.07454560423697273 -0.21037288821969063 -0.07454560423697273 -0.21037288821969063 -0.07454560423697273 -0.21037288821969063 -0.07454560423697273 -0.21037288821969063
950000000.0 -0.1099750001009982 -0.19876678882642568 -0.1099750001009982 -0.19876678882642568 -0.1099750001009982 -0.19876678882642568 -0.1099750001009982 -0.19876678882642568
1000000000.0 -0.11938404214322296 -0.19082543434071852 -0.11938404214322296 -0.19082543434071852 -0.11938404214322296 -0.19082543434071852 -0.11938404214322296 -0.19082543434071852
1050000000.0 -0.14397861064811993 -0.16260980708637077 -0.14397861064811993 -0.16260980708637077 -0.14397861064811993 -0.16260980708637077 -0.14397861064811993 -0.16260980708637077
1100000000.0 -0.16019892292812055 -0.16143704280003665 -0.16019892292812055 -0.16143704280003665 -0.16019892292812055 -0.16143704280003665 -0.16019892292812055 -0.16143704280003665
1150000000.0 -0.1681573602822333 -0.1255848311333859 -0.1681573602822333 -0.1255848311333859 -0.1681573602822333 -0.1255848311333859 -0.1681573602822333 -0.1255848311333859
1200000000.0 -0.19391780932517672 -0.1219067245563017 -0.19391780932517672 -0.1219067245563017 -0.19391780932517672 -0.1219067245563017 -0.19391780932517672 -0.1219067245563017
1250000000.0 -0.18624193956549354 -0.08698300372903864 -0.18624193956549354 -0.08698300372903864 -0.18624193956549354 -0.08698300372903864 -0.18624193956549354 -0.08698300372903864
1300000000.0 -0.21632824138492524 -0.07292742538583755 -0.21632824138492524 -0.07292742538583755 -0.21632824138492524 -0.07292742538583755 -0.21632824138492524 -0.07292742538583755
1350000000.0 -0.19825778353503729 -0.047374278888599956 -0.19825778353503729 -0.047374278888599956 -0.19825778353503729 -0.047374278888599956 -0.19825778353503729 -0.047374278888599956
1400000000.0 -0.22356996541291047 -0.0229682023900896 -0.22356996541291047 -0.0229682023900896 -0.22356996541291047 -0.0229682023900896 -0.22356996541291047 -0.0229682023900896
1450000000.0 -0.20465377739568355 -0.004841883835953704 -0.20465377739568355 -0.004841883835953704 -0.20465377739568355 -0.004841883835953704 -0.20465377739568355 -0.004841883835953704
1500000000.0 -0.21671853273152392 0.028886999347727833 -0.21671853273152392 0.028886999347727833 -0.21671853273152392 0.028886999347727833 -0.21671853273152392 0.028886999347727833
1550000000.0 -0.2047812371704043 0.039275522974615555 -0.2047812371704043 0.039275522974615555 -0.2047812371704043 0.039275522974615555 -0.2047812371704043 0.039275522974615555
1600000000.0 -0.19790530750551294 0.07464408007471254 -0.19790530750551294 0.07464408007471254 -0.19790530750551294 0.07464408007471254 -0.19790530750551294 0.07464408007471254
1650000000.0 -0.19546305625413976 0.08463405402295954 -0.19546305625413976 0.08463405402295954 -0.19546305625413976 0.08463405402295954 -0.19546305625413976 0.08463405402295954
1700000000.0 -0.17474328793721078 0.11277560647952001 -0.17474328793721078 0.11277560647952001 -0.17474328793721078 0.11277560647952001 -0.17474328793721078 0.11277560647952001
1750000000.0 -0.17530227564591283 0.13036354207586134 -0.17530227564591283 0.13036354207586134 -0.17530227564591283 0.13036354207586134 -0.17530227564591283 0.13036354207586134
1800000000.0 -0.14172823690134792 0.1418933300588723 -0.14172823690134792 0.1418933300588723 -0.14172823690134792 0.1418933300588723 -0.14172823690134792 0.1418933300588723
1850000000.0 -0.14298513623579406 0.16458181856328882 -0.14298513623579406 0.16458181856328882 -0.14298513623579406 0.16458181856328882 -0.14298513623579406 0.16458181856328882
1900000000.0 -0.10890332604281439 0.16768262888281582 -0.10890332604281439 0.16768262888281582 -0.10890332604281439 0.16768262888281582 -0.10890332604281439 0.16768262888281582
1950000000.0 -0.09862882436328169 0.19648427899698614 -0.09862882436328169 0.19648427899698614 -0.09862882436328169 0.19648427899698614 -0.09862882436328169 0.19648427899698614
2000000000.0 -0.07215731986703501 0.18744815787739727 -0.07215731986703501 0.18744815787739727 -0.07215731986703501 0.18744815787739727 -0.07215731986703501 0.18744815787739727
2050000000.0 -0.05138039074489072 0.21117592461969298 -0.05138039074489072 0.21117592461969298 -0.05138039074489072 0.21117592461969298 -0.05138039074489072 0.21117592461969298
2100000000.0 -0.031733050323129675 0.2015650503823985 -0.031733050323129675 0.2015650503823985 -0.031733050323129675 0.2015650503823985 -0.031733050323129675 0.2015650503823985
2150000000.0 -0.0028564543673920326 0.2138719553767973 -0.0028564543673920326 0.2138719553767973 -0.0028564543673920326 0.2138719553767973 -0.0028564543673920326 0.2138719553767973
2200000000.0 0.012936199745761538 0.2077233940537358 0.012936199745761538 0.2077233940537358 0.012936199745761538 0.2077233940537358 0.012936199745761538 0.2077233940537358
2250000000.0 0.04642815266529897 0.20461820141820988 0.04642815266529897 0.20461820141820988 0.04642815266529897 0.20461820141820988 0.04642815266529897 0.20461820141820988
2300000000.0 0.05820059443884642 0.20325784424975138 0.05820059443884642 0.20325784424975138 0.05820059443884642 0.20325784424975138 0.05820059443884642 0.20325784424975138
2350000000.0 0.08817558154117444 0.19045333470019246 0.08817558154117444 0.19045333470019246 0.08817558154117444 0.19045333470019246 0.08817558154117444 0.19045333470019246
2400000000.0 0.10541475128911036 0.19155658573645162 0.10541475128911036 0.19155658573645162 0.10541475128911036 0.19155658573645162 0.10541475128911036 0.19155658573645162
2450000000.0 0.12363026821574637 0.16073846219154572 0.12363026821574637 0.16073846219154572 0.12363026821574637 0.16073846219154572 0.12363026821574637 0.16073846219154572
2500000000.0 0.14577141532198584 0.1625997607714824 0.14577141532198584 0.1625997607714824 0.14577141532198584 0.1625997607714824 0.14577141532198584 0.1625997607714824
2550000000.0 0.15444136586952148 0.13333949590394908 0.15444136586952148 0.13333949590394908 0.15444136586952148 0.13333949590394908 0.15444136586952148 0.13333949590394908
2600000000.0 0.17882128476922632 0.12726790214966208 0.17882128476922632 0.12726790214966208 0.17882128476922632 0.12726790214966208 0.17882128476922632 0.12726790214966208
2650000000.0 0.179651407132694 0.0990427422656759 0.179651407132694 0.0990427422656759 0.179651407132694 0.0990427422656759 0.179651407132694 0.0990427422656759
2700000000.0 0.2024423885986883 0.0833476535330564 0.2024423885986883 0.0833476535330564 0.2024423885986883 0.0833476535330564 0.2024423885986883 0.0833476535330564
2750000000.0 0.1996211337613538 0.05816579487250274 0.1996211337613538 0.05816579487250274 0.1996211337613538 0.05816579487250274 0.1996211337613538 0.05816579487250274
2800000000.0 0.21647773706154202 0.03833438824897557 0.21647773706154202 0.03833438824897557 0.21647773706154202 0.03833438824897557 0.21647773706154202 0.03833438824897557
2850000000.0 0.2083222727535266 0.015510422495340456 0.2083222727535266 0.015510422495340456 0.2083222727535266 0.015510422495340456 0.2083222727535266 0.015510422495340456
2900000000.0 0.21914982918635492 -0.015039257362313546 0.21914982918635492 -0.015039257362313546 0.21914982918635492 -0.015039257362313546 0.21914982918635492 -0.015039257362313546
2950000000.0 0.21368112388963514 -0.028759449049044164 0.21368112388963514 -0.028759449049044164 0.21368112388963514 -0.028759449049044164 0.21368112388963514 -0.028759449049044164
3000000000.0 0.21057541270748606 -0.06168433073321479 0.21057541270748606 -0.06168433073321479 0.21057541270748606 -0.06168433073321479 0.21057541270748606 -0.06168433073321479
3050000000.0 0.20549008593723248 -0.07351758565168579 0.20549008593723248 -0.07351758565168579 0.20549008593723248 -0.07351758565168579 0.20549008593723248 -0.07351758565168579
3100000000.0 0.1872128709272927 -0.10163579627867206 0.1872128709272927 -0.10163579627867206 0.1872128709272927 -0.10163579627867206 0.1872128709272927 -0.10163579627867206
3150000000.0 0.1886374386976654 -0.12154212902719737 0.1886374386976654 -0.12154212902719737 0.1886374386976654 -0.12154212902719737 0.1886374386976654 -0.12154212902719737
3200000000.0 0.1605949737856181 -0.13514703267833134 0.1605949737856181 -0.13514703267833134 0.1605949737856181 -0.13514703267833134 0.1605949737856181 -0.13514703267833134
3250000000.0 0.15651883687601975 -0.16598471526662362 0.15651883687601975 -0.16598471526662362 0.15651883687601975 -0.16598471526662362 0.15651883687601975 -0.16598471526662362
3300000000.0 0.13021692687297287 -0.16884101131497378 0.13021692687297287 -0.16884101131497378 0.13021692687297287 -0.16884101131497378 0.13021692687297287 -0.16884101131497378
3350000000.0 0.12080308423070513 -0.1925071338965488 0.12080308423070513 -0.1925071338965488 0.12080308423070513 -0.1925071338965488 0.12080308423070513 -0.1925071338965488
3400000000.0 0.09277489699565517 -0.19322863306508367 0.09277489699565517 -0.19322863306508367 0.09277489699565517 -0.19322863306508367 0.09277489699565517 -0.19322863306508367
3450000000.0 0.07672955536973136 -0.21576669060947398 0.07672955536973136 -0.21576669060947398 0.07672955536973136 -0.21576669060947398 0.07672955536973136 -0.21576669060947398
3500000000.0 0.05453176661786585 -0.21200840223929954 0.05453176661786585 -0.21200840223929954 0.05453176661786585 -0.21200840223929954 0.05453176661786585 -0.21200840223929954
3550000000.0 0.023327613335376647 -0.2260526788665216 0.023327613335376647 -0.2260526788665216 0.023327613335376647 -0.2260526788665216 0.023327613335376647 -0.2260526788665216
3600000000.0 0.010419857984109084 -0.22071655312042662 0.010419857984109084 -0.22071655312042662 0.010419857984109084 -0.22071655312042662 0.010419857984109084 -0.22071655312042662
3650000000.0 -0.02670128183807201 -0.22013173619938003 -0.02670128183807201 -0.22013173619938003 -0.02670128183807201 -0.22013173619938003 -0.02670128183807201 -0.22013173619938003
3700000000.0 -0.03857975058282355 -0.22450841629253712 -0.03857975058282355 -0.22450841629253712 -0.03857975058282355 -0.22450841629253712 -0.03857975058282355 -0.22450841629253712
3750000000.0 -0.06782303311575003 -0.20481227828123433 -0.06782303311575003 -0.20481227828123433 -0.06782303311575003 -0.20481227828123433 -0.06782303311575003 -0.20481227828123433
3800000000.0 -0.09010164185494422 -0.2144951562720968 -0.09010164185494422 -0.2144951562720968 -0.09010164185494422 -0.2144951562720968 -0.09010164185494422 -0.2144951562720968
3850000000.0 -0.10606632701985007 -0.18984027134131792 -0.10606632701985007 -0.18984027134131792 -0.10606632701985007 -0.18984027134131792 -0.10606632701985007 -0.18984027134131792
3900000000.0 -0.1349280185830285 -0.18970279768031728 -0.1349280185830285 -0.18970279768031728 -0.1349280185830285 -0.18970279768031728 -0.1349280185830285 -0.18970279768031728
3950000000.0 -0.14224875591635833 -0.16375984045107334 -0.14224875591635833 -0.16375984045107334 -0.14224875591635833 -0.16375984045107334 -0.14224875591635833 -0.16375984045107334
4000000000.0 -0.16800804706981262 -0.15985778777655388 -0.16800804706981262 -0.15985778777655388 -0.16800804706981262 -0.15985778777655388 -0.16800804706981262 -0.15985778777655388
4050000000.0 -0.17824858943314312 -0.13098358915467403 -0.17824858943314312 -0.13098358915467403 -0.17824858943314312 -0.13098358915467403 -0.17824858943314312 -0.13098358915467403
4100000000.0 -0.20153288765718114 -0.11781828606995355 -0.20153288765718114 -0.11781828606995355 -0.20153288765718114 -0.11781828606995355 -0.20153288765718114 -0.11781828606995355
4150000000.0 -0.20072758972197247 -0.09345484041234368 -0.20072758972197247 -0.09345484041234368 -0.20072758972197247 -0.09345484041234368 -0.20072758972197247 -0.09345484041234368
4200000000.0 -0.22306710191907692 -0.07263760318337595 -0.22306710191907692 -0.07263760318337595 -0.22306710191907692 -0.07263760318337595 -0.22306710191907692 -0.07263760318337595
4250000000.0 -0.2190747555394521 -0.0536463628875027 -0.2190747555394521 -0.0536463628875027 -0.2190747555394521 -0.0536463628875027 -0.2190747555394521 -0.0536463628875027
4300000000.0 -0.22365332477793204 -0.015353765370677423 -0.22365332477793204 -0.015353765370677423 -0.22365332477793204 -0.015353765370677423 -0.22365332477793204 -0.015353765370677423
4350000000.0 -0.23434180991163844 -0.0044556344591741666 -0.23434180991163844 -0.0044556344591741666 -0.23434180991163844 -0.0044556344591741666 -0.23434180991163844 -0.0044556344591741666
4400000000.0 -0.21878290684305504 0.02592357615331178 -0.21878290684305504 0.02592357615331178 -0.21878290684305504 0.02592357615331178 -0.21878290684305504 0.02592357615331178
4450000000.0 -0.23141132468712816 0.050919398503605655 -0.23141132468712816 0.050919398503605655 -0.23141132468712816 0.050919398503605655 -0.23141132468712816 0.050919398503605655
4500000000.0 -0.21171981547774876 0.06873338841355145 -0.21171981547774876 0.06873338841355145 -0.21171981547774876 0.06873338841355145 -0.21171981547774876 0.06873338841355145
4550000000.0 -0.21237525171279756 0.10565853420174444 -0.21237525171279756 0.10565853420174444 -0.21237525171279756 0.10565853420174444 -0.21237525171279756 0.10565853420174444
4600000000.0 -0.19315886384602685 0.11463834836451582 -0.19315886384602685 0.11463834836451582 -0.19315886384602685 0.11463834836451582 -0.19315886384602685 0.11463834836451582
4650000000.0 -0.1879786903973364 0.13736652068381316 -0.1879786903973364 0.13736652068381316 -0.1879786903973364 0.13736652068381316 -0.1879786903973364 0.13736652068381316
4700000000.0 -0.16423001790367314 0.15410487682680632 -0.16423001790367314 0.15410487682680632 -0.16423001790367314 0.15410487682680632 -0.16423001790367314 0.15410487682680632
4750000000.0 -0.15533660648412986 0.17703892435374385 -0.15533660648412986 0.17703892435374385 -0.15533660648412986 0.17703892435374385 -0.15533660648412986 0.17703892435374385
4800000000.0 -0.13124897299618116 0.18196634433192893 -0.13124897299618116 0.18196634433192893 -0.13124897299618116 0.18196634433192893 -0.13124897299618116 0.18196634433192893
4850000000.0 -0.10791097212607505 0.20671063337612236 -0.10791097212607505 0.20671063337612236 -0.10791097212607505 0.20671063337612236 -0.10791097212607505 0.20671063337612236
4900000000.0 -0.09534848085717602 0.20783220036203245 -0.09534848085717602 0.20783220036203245 -0.09534848085717602 0.20783220036203245 -0.09534848085717602 0.20783220036203245
4950000000.0 -0.06547865763358245 0.22250976804753878 -0.06547865763358245 0.22250976804753878 -0.06547865763358245 0.22250976804753878 -0.06547865763358245 0.22250976804753878
5000000000.0 -0.04700733058948281 0.23402028257195207 -0.04700733058948281 0.23402028257195207 -0.04700733058948281 0.23402028257195207 -0.04700733058948281 0.23402028257195207
5050000000.0 -0.01749495568650917 0.2232462244407587 -0.01749495568650917 0.2232462244407587 -0.01749495568650917 0.2232462244407587 -0.01749495568650917 0.2232462244407587
5100000000.0 0.008095238571139009 0.23587869435791559 0.008095238571139009 0.23587869435791559 0.008095238571139009 0.23587869435791559 0.008095238571139009 0.23587869435791559
5150000000.0 0.028267384793618854 0.22738344553286657 0.028267384793618854 0.22738344553286657 0.028267384793618854 0.22738344553286657 0.028267384793618854 0.22738344553286657
5200000000.0 0.05807207566125395 0.22606240976992006 0.05807207566125395 0.22606240976992006 0.05807207566125395 0.22606240976992006 0.05807207566125395 0.22606240976992006
5250000000.0 0.08049989754118936 0.21645908052362933 0.08049989754118936 0.21645908052362933 0.08049989754118936 0.21645908052362933 0.08049989754118936 0.21645908052362933
5300000000.0 0.09890500352469707 0.2130282003800475 0.09890500352469707 0.2130282003800475 0.09890500352469707 0.2130282003800475 0.09890500352469707 0.2130282003800475
5350000000.0 0.12369226796312006 0.19048613173549275 0.12369226796312006 0.19048613173549275 0.12369226796312006 0.19048613173549275 0.12369226796312006 0.19048613173549275
5400000000.0 0.1517667636299176 0.18339912809673595 0.1517667636299176 0.18339912809673595 0.1517667636299176 0.18339912809673595 0.1517667636299176 0.18339912809673595
5450000000.0 0.15218059288589023 0.1597991655576168 0.15218059288589023 0.1597991655576168 0.15218059288589023 0.1597991655576168 0.15218059288589023 0.1597991655576168
5500000000.0 0.18661704108883517 0.14777141384959677 0.18661704108883517 0.14777141384959677 0.18661704108883517 0.14777141384959677 0.18661704108883517 0.14777141384959677
5550000000.0 0.19114128918459114 0.13347577524415077 0.19114128918459114 0.13347577524415077 0.19114128918459114 0.13347577524415077 0.19114128918459114 0.13347577524415077
5600000000.0 0.20757707748944476 0.1003724216737584 0.20757707748944476 0.1003724216737584 0.20757707748944476 0.1003724216737584 0.20757707748944476 0.1003724216737584
5650000000.0 0.22259218698548228 0.08734618596957032 0.22259218698548228 0.08734618596957032 0.22259218698548228 0.08734618596957032 0.22259218698548228 0.08734618596957032
5700000000.0 0.221214509533476 0.059291775172693885 0.221214509533476 0.059291775172693885 0.221214509533476 0.059291775172693885 0.221214509533476 0.059291775172693885
5750000000.0 0.2365714121132551 0.03315817782635942 0.2365714121132551 0.03315817782635942 0.2365714121132551 0.03315817782635942 0.2365714121132551 0.03315817782635942
5800000000.0 0.2321673156764598 0.011820767816444217 0.2321673156764598 0.011820767816444217 0.2321673156764598 0.011820767816444217 0.2321673156764598 0.011820767816444217
5850000000.0 0.2358741827229661 -0.014291215721922323 0.2358741827229661 -0.014291215721922323 0.2358741827229661 -0.014291215721922323 0.2358741827229661 -0.014291215721922323
5900000000.0 0.23071156705479753 -0.04320358447597155 0.23071156705479753 -0.04320358447597155 0.23071156705479753 -0.04320358447597155 0.23071156705479753 -0.04320358447597155
5950000000.0 0.23339188009773945 -0.057593810334618904 0.23339188009773945 -0.057593810334618904 0.23339188009773945 -0.057593810334618904 0.23339188009773945 -0.057593810334618904
6000000000.0 0.21298352285926775 -0.08801391004907697 0.21298352285926775 -0.08801391004907697 0.21298352285926775 -0.08801391004907697 0.21298352285926775 -0.08801391004907697
