! Created with skrf 2.0.0 (http://scikit-rf.org).
# Hz S RI R 50.0 
!freq ReS11 ImS11
!
100000000.0 0.2648782425196572 -0.058230730663443406
150000000.0 0.25355408295924076 -0.08095670219570313
200000000.0 0.24508198001395176 -0.11370528838395173
250000000.0 0.23110111512868078 -0.13237118149172203
300000000.0 0.2134391387208223 -0.16170391056075245
350000000.0 0.19819785278133897 -0.1773421486329538
400000000.0 0.17154083249106086 -0.20009678968963304
450000000.0 0.15630493581546243 -0.2172019000161839
500000000.0 0.12541392727908976 -0.23053928537334936
550000000.0 0.10615771047335888 -0.24537754878066667
600000000.0 0.07433194248144052 -0.2490240835226801
650000000.0 0.047609315232970253 -0.2623843257643554
700000000.0 0.021685755340680807 -0.25749328187228854
750000000.0 -0.010448687646923785 -0.26391737710614094
800000000.0 -0.032354358038950766 -0.2553001235993641
850000000.0 -0.06420726406138198 -0.25460482669127615
900000000.0 -0.08494867541735843 -0.24293444298818542
950000000.0 -0.11698587214171181 -0.2312003673716342
1000000000.0 -0.13459586895528505 -0.2201794311764793
1050000000.0 -0.16211158581013838 -0.19923939612894057
1100000000.0 -0.17993766968172115 -0.1873102385555337
1150000000.0 -0.20114032927347383 -0.15994758700052752
1200000000.0 -0.21816665576940208 -0.14479290742839152
1250000000.0 -0.23124435544361274 -0.11209079761179272
1300000000.0 -0.24843121274718696 -0.09041952504521172
1350000000.0 -0.24956273294747156 -0.05824285343197467
1400000000.0 -0.2621316709751186 -0.02599201204214322
1450000000.0 -0.2550663935816532 0.00040450581197853746
1500000000.0 -0.2568756426208597 0.03614804507698268
1550000000.0 -0.24707513962790306 0.05759255590840024
1600000000.0 -0.2387823281438934 0.09202555144363887
1650000000.0 -0.22779744374441765 0.11160093661608061
1700000000.0 -0.20771752879867633 0.1412365771810366
1750000000.0 -0.19627557323200398 0.16041688285079037
1800000000.0 -0.16954507519585257 0.18190108881122358
1850000000.0 -0.15451675992133013 0.19976047954180243
1900000000.0 -0.1240026942957265 0.2125569400808657
1950000000.0 -0.10503075129943955 0.22909232555554826
2000000000.0 -0.07707907111129146 0.23034030157462987
2050000000.0 -0.05302242506026073 0.24651457291973905
2100000000.0 -0.022941334549913216 0.24322023343614446
2150000000.0 0.016148495875785925 0.24648662327127616
2200000000.0 0.03027989641901871 0.24484040834525986
2250000000.0 0.0642293897758361 0.24119767356711963
2300000000.0 0.08417773810191578 0.23354801351173143
2350000000.0 0.11491295349259084 0.22002312250023867
2400000000.0 0.13174210746129797 0.20920414494742956
2450000000.0 0.15901854770970963 0.1875220649906824
2500000000.0 0.17967207513808212 0.17571593810738126
2550000000.0 0.19513452033094078 0.14884259970129904
2600000000.0 0.2158110803826153 0.131656807546413
2650000000.0 0.22447226683731936 0.10309499172176126
2700000000.0 0.24085263836692253 0.08101276243205487
2750000000.0 0.24237603460519172 0.05271225947213459
2800000000.0 0.25238809026855985 0.022464646029539678
2850000000.0 0.24981956641266082 0.00038655945777459636
2900000000.0 0.2529084454102659 -0.032003917984656786
2950000000.0 0.24552565025925713 -0.053276898898553686
3000000000.0 0.2393063671521947 -0.08655782434477212
3050000000.0 0.23088891691767383 -0.10605126941807998
3100000000.0 0.21689493668083246 -0.13632894440996746
3150000000.0 0.2041383649141751 -0.15531644930923572
3200000000.0 0.18117331980154053 -0.18000237180754952
3250000000.0 0.16695585264216162 -0.19839314697656713
3300000000.0 0.13874985513708504 -0.21274985333631588
3350000000.0 0.11992064510137997 -0.23203554584723393
3400000000.0 0.09163738197503288 -0.23781184804982397
3450000000.0 0.06536203964350482 -0.2531890910921874
3500000000.0 0.041021615804810035 -0.2534793895322746
3550000000.0 0.009478130002544228 -0.2619425171680568
3600000000.0 -0.013197307049499497 -0.2559304887841946
3650000000.0 -0.047546629029065646 -0.2567272205581815
3700000000.0 -0.06787597653722352 -0.2518888574234792
3750000000.0 -0.10033681070733833 -0.2399282249446656
3800000000.0 -0.1218318099972364 -0.2337703813631371
3850000000.0 -0.14806136781723295 -0.21326002116804374
3900000000.0 -0.17218006560173113 -0.20233468845238028
3950000000.0 -0.18892083310823699 -0.17776193809837812
4000000000.0 -0.21138049592017483 -0.16187149629531966
4050000000.0 -0.22210848445322967 -0.1351933053410424
4100000000.0 -0.2422489962835656 -0.11033610502850776
4150000000.0 -0.2460741384083594 -0.08689286828446345
4200000000.0 -0.260039660308082 -0.05796763990309074
4250000000.0 -0.2602409228473471 -0.03408773339232388
4300000000.0 -0.264648343714647 -0.0001171536097860934
4350000000.0 -0.26392435202242964 0.022499874123367115
4400000000.0 -0.25694060780509964 0.05539256615455419
4450000000.0 -0.2536483147736603 0.07780855992202057
4500000000.0 -0.23701302886855602 0.10614440296825285
4550000000.0 -0.23263011753865168 0.12753840256515522
4600000000.0 -0.21119106603764237 0.15427516260830307
4650000000.0 -0.19862255253933112 0.1778419157559488
4700000000.0 -0.1746792216919543 0.19421340278719113
4750000000.0 -0.15501229601908206 0.21697196432231633
4800000000.0 -0.12722640709434235 0.22456762327148067
4850000000.0 -0.10339217066238521 0.2442311603171968
4900000000.0 -0.08078331513572545 0.24824918144313077
4950000000.0 -0.04905313171997747 0.25904737319732024
5000000000.0 -0.026055712747824297 0.2632251642815638
5050000000.0 0.006705082650340415 0.261583701658804
5100000000.0 0.03062397777272692 0.2617894353300806
5150000000.0 0.060994079061148766 0.25328682696466015
5200000000.0 0.08745313458372063 0.24883636573181359
5250000000.0 0.11211319951752236 0.2339196310435961
5300000000.0 0.1404675907971372 0.2231094818325678
5350000000.0 0.15984884314248085 0.20328860795894477
5400000000.0 0.18362523822674615 0.1879969496525762
5450000000.0 0.1987808199721408 0.16632320857024713
5500000000.0 0.21896814936147016 0.14362458538579653
5550000000.0 0.22928417360907033 0.12081100015294899
5600000000.0 0.2435092595461787 0.09245826175788643
5650000000.0 0.250607032187083 0.06889445957814518
5700000000.0 0.25702416373881765 0.03806977303167414
5750000000.0 0.2572800220023793 0.017180828696824257
5800000000.0 0.2571976249204292 -0.01782141085284208
5850000000.0 0.2565718945052519 -0.0432199160902324
5900000000.0 0.24819817327800403 -0.07226435571210998
5950000000.0 0.24216203823776689 -0.09617344529105093
6000000000.0 0.22659653240322936 -0.12257936716315666
