! Created with skrf 2.0.0 (http://scikit-rf.org).
# Hz S RI R 50.0 
!freq ReS11 ImS11
!
100000000.0 0.9763726323194101 -0.2134395380462658
150000000.0 0.9418723611538725 -0.3133240016563741
200000000.0 0.906967044370004 -0.4168338594874748
250000000.0 0.855117210675017 -0.5066558743221629
300000000.0 0.7954502339755718 -0.5986311745475013
350000000.0 0.7286211476739394 -0.6751525365331047
400000000.0 0.6449149925196087 -0.7513108810961007
450000000.0 0.5677242063331603 -0.8176684313407067
500000000.0 0.47207824470917836 -0.8690958288329625
550000000.0 0.3806585049166778 -0.9200307624094431
600000000.0 0.2751896018147758 -0.9466715322326428
650000000.0 0.17058832124675183 -0.9805194744293834
700000000.0 0.06697743050977435 -0.9821581831787434
750000000.0 -0.04432033813826939 -0.9907760783428784
800000000.0 -0.1433527425390489 -0.9723764623600601
850000000.0 -0.25085147014458653 -0.9577332541797173
900000000.0 -0.3481005349687563 -0.9188328449197002
950000000.0 -0.45040368670806596 -0.8752895723842596
1000000000.0 -0.5371551089574519 -0.8223629865364167
1050000000.0 -0.6243187333211733 -0.7537933037247196
1100000000.0 -0.7014046639754988 -0.6876701213125267
1150000000.0 -0.7682735330285054 -0.6007711456378628
1200000000.0 -0.8300965013278087 -0.5206484418755714
1250000000.0 -0.8742029846743292 -0.41972361879278136
1300000000.0 -0.9212278268803983 -0.3280373864912032
1350000000.0 -0.9403741276602096 -0.22039505600532164
1400000000.0 -0.9667931278228252 -0.1180777728580976
1450000000.0 -0.9648604402118434 -0.015106239789876179
1500000000.0 -0.9651936319030766 0.09365284734771515
1550000000.0 -0.9449697250780521 0.19172278318080735
1600000000.0 -0.9196525403735355 0.29713040804878876
1650000000.0 -0.8816258378406757 0.391623789195609
1700000000.0 -0.828165910661071 0.48619893457821656
1750000000.0 -0.7759064757133739 0.5733026014052944
1800000000.0 -0.7023889948070148 0.6507637905507413
1850000000.0 -0.6332551690066329 0.7249329351131406
1900000000.0 -0.5431672553649634 0.782612008159199
1950000000.0 -0.46172271994205955 0.8421782816889413
2000000000.0 -0.3581190721088536 0.8784429618254466
2050000000.0 -0.2738362240185136 0.919514468373561
2100000000.0 -0.16646594314297442 0.9345971599400607
2150000000.0 -0.047231367165667955 0.9466875388634595
2200000000.0 0.037478234332028404 0.9494520957860898
2250000000.0 0.1439011815009717 0.9403725571371665
2300000000.0 0.23949950454813532 0.919221261852711
2350000000.0 0.33996830667290556 0.8842351304728824
2400000000.0 0.4249631552424873 0.8468923027458616
2450000000.0 0.5196476761178246 0.7862910572756218
2500000000.0 0.6018732423472967 0.7344387177065436
2550000000.0 0.6735577717910513 0.6552717305094284
2600000000.0 0.7452052086255238 0.5877464657208581
2650000000.0 0.7975779551302602 0.4986110871289165
2700000000.0 0.8527067805079048 0.415241102738003
2750000000.0 0.8849408498608321 0.3187454008627979
2800000000.0 0.9190620634429364 0.21716744765951532
2850000000.0 0.9333735040142941 0.12435020253661325
2900000000.0 0.9446426715333023 0.02040094067539881
2950000000.0 0.9382980762668615 -0.07447673666688526
3000000000.0 0.9246245715405972 -0.18067071122006617
3050000000.0 0.9027520724324823 -0.2736490447147431
3100000000.0 0.8661949757364108 -0.3700017721794238
3150000000.0 0.8253488018902881 -0.4594916944547852
3200000000.0 0.7654225627619505 -0.5439753956028849
3250000000.0 0.7092752444448314 -0.6253014216470758
3300000000.0 0.6301470835326596 -0.6945051206205376
3350000000.0 0.5595072515400139 -0.7621272122888123
3400000000.0 0.4706005987328956 -0.8121018388422121
3450000000.0 0.3818226128459041 -0.8627954705449395
3500000000.0 0.2901743164232073 -0.8945600251063651
3550000000.0 0.19121900971614028 -0.9231572750258237
3600000000.0 0.0991334196045389 -0.9333563908689078
3650000000.0 -0.009609460915522996 -0.940476841188057
3700000000.0 -0.10266914825271803 -0.9372058898488641
3750000000.0 -0.20769144980211598 -0.9149847954362308
3800000000.0 -0.2997623704417168 -0.8957004021512995
3850000000.0 -0.3952636837914362 -0.8503039789708945
3900000000.0 -0.4852299971199147 -0.8102953050083248
3950000000.0 -0.5653077123748632 -0.7485182384556044
4000000000.0 -0.6437317821623335 -0.6905495906311735
4050000000.0 -0.7093487879159274 -0.6140924743565606
4100000000.0 -0.7763837983034703 -0.534216307058693
4150000000.0 -0.8231077236275561 -0.45294883178035455
4200000000.0 -0.8698633146004459 -0.3621486560377701
4250000000.0 -0.9002555537427611 -0.27080468689634574
4300000000.0 -0.9244970828162641 -0.16835255381019334
4350000000.0 -0.9387910426043742 -0.07367320016414074
4400000000.0 -0.9364098439305251 0.030920387651120557
4450000000.0 -0.9337314598697559 0.12378905250268188
4500000000.0 -0.9054348179969333 0.22862098240054848
4550000000.0 -0.8893870964123779 0.3119293948610594
4600000000.0 -0.8412110782364516 0.4111950865705107
4650000000.0 -0.7992080189940981 0.49814776121433674
4700000000.0 -0.7364029098943945 0.5784319738885464
4750000000.0 -0.6731585989033478 0.6565233171401686
4800000000.0 -0.6023412400133359 0.7136220116251547
4850000000.0 -0.5170062118008564 0.7830655281119362
4900000000.0 -0.4381288376830189 0.8275405097711819
4950000000.0 -0.3405041811150457 0.8726179150976716
5000000000.0 -0.25057261923651475 0.9053366625707382
5050000000.0 -0.1486713293089378 0.9228512671639966
5100000000.0 -0.05531102193714395 0.9368895308964084
5150000000.0 0.048364208030982715 0.9329004252488335
5200000000.0 0.14655912036037583 0.9263471068062952
5250000000.0 0.24454232835503997 0.9013351580781932
5300000000.0 0.34293649065118126 0.8730482673846823
5350000000.0 0.425157302098535 0.8301392280389881
5400000000.0 0.5169210013740815 0.7808535576191629
5450000000.0 0.5932474929070636 0.7207442017660508
5500000000.0 0.6698146320077936 0.6527982497466414
5550000000.0 0.7345987060921985 0.5793794124946648
5600000000.0 0.791582260108717 0.49468585015918803
5650000000.0 0.8392796741791397 0.4119702180327137
5700000000.0 0.8775869134455557 0.31530593884339886
5750000000.0 0.9041287028597484 0.23540123432727109
5800000000.0 0.9236161421652453 0.11923271656862208
5850000000.0 0.9339130296684893 0.025531184842462057
5900000000.0 0.9288997818427418 -0.07650078790962754
5950000000.0 0.9188816801160237 -0.17109630643884094
6000000000.0 0.8911177121981233 -0.27271282732840757
