! Created with skrf 2.0.0 (http://scikit-rf.org).
# Hz S RI R 50.0 
!freq ReS11 ImS11
!
100000000.0 -0.5795826444993137 0.1345738323958722
150000000.0 -0.5631696898774964 0.20394051934366747
200000000.0 -0.5342590115023857 0.25771054563235457
250000000.0 -0.501770215043636 0.32083032253646443
300000000.0 -0.46449948337336 0.36739361506896123
350000000.0 -0.4177969819389111 0.4202447980388466
400000000.0 -0.37297394538200784 0.4617497065733107
450000000.0 -0.31354273893607215 0.49754833635855833
500000000.0 -0.26349080975007855 0.5292405369033386
550000000.0 -0.1973928854678831 0.5511152718480676
600000000.0 -0.1402210570827361 0.5744607699392714
650000000.0 -0.07409171045458782 0.57769829995032
700000000.0 -0.009749964976258508 0.589735807077036
750000000.0 0.05188542635310581 0.5793896883710491
800000000.0 0.11795970267262995 0.5751702978183934
850000000.0 0.17492765687888615 0.5519588346908236
900000000.0 0.23976206244091217 0.5311144619917957
950000000.0 0.2896218011124562 0.4993840047243924
1000000000.0 0.3455887832227452 0.4600174747639968
1050000000.0 0.38716264519923743 0.4210104746307335
1100000000.0 0.4276828476201842 0.36770594146025803
1150000000.0 0.4566736481040105 0.32569698837542727
1200000000.0 0.48088559358992244 0.2674490340973941
1250000000.0 0.5015991345324732 0.2265401199651813
1300000000.0 0.5116111259714107 0.1729039851982839
1350000000.0 0.5338636207178358 0.12737421902518412
1400000000.0 0.538794201894293 0.0809777791883494
1450000000.0 0.5565411578448862 0.025890307847023723
1500000000.0 0.5568154110141855 -0.02449063448597577
1550000000.0 0.5594044688850378 -0.08873593696590942
1600000000.0 0.5504853332609665 -0.1400634218944142
1650000000.0 0.5328842820620129 -0.20622223865763759
1700000000.0 0.5164615742506112 -0.25706321458900233
1750000000.0 0.4799459000962129 -0.3150908054844503
1800000000.0 0.45470115085336527 -0.36336293111207896
1850000000.0 0.40570433857862376 -0.41049025653669774
1900000000.0 0.36961099483762555 -0.4549416242538007
1950000000.0 0.3121610197105854 -0.4880990187279164
2000000000.0 0.25636445900197674 -0.5286186321882532
2050000000.0 0.20410852912544128 -0.54390466729809
2100000000.0 0.14592833609257358 -0.5695665299918761
2150000000.0 0.08798341438474164 -0.580409468122092
2200000000.0 0.019629808150121456 -0.5853284794618091
2250000000.0 -0.03450350970583906 -0.5834134177610367
2300000000.0 -0.10317597639602832 -0.57512019570384
2350000000.0 -0.1582325264519434 -0.5636416347012111
2400000000.0 -0.22073743977479357 -0.5424471423617466
2450000000.0 -0.27600087586290356 -0.518336241829524
2500000000.0 -0.32712914326974146 -0.4795608053170022
2550000000.0 -0.3801304346448313 -0.4472243014820557
2600000000.0 -0.41891436085806283 -0.39958588129980904
2650000000.0 -0.46267002049943323 -0.3581487627255373
2700000000.0 -0.4924582082483565 -0.3031642929725869
2750000000.0 -0.5268597324085263 -0.25194067403910303
2800000000.0 -0.5456027248516897 -0.1940194929943968
2850000000.0 -0.5661278727957291 -0.13265562932731806
2900000000.0 -0.5723399339871585 -0.0761708468519262
2950000000.0 -0.5788301777851204 -0.010326857107295615
3000000000.0 -0.5751676769952486 0.046119513145414105
3050000000.0 -0.563852193465785 0.112045158061994
3100000000.0 -0.5503453428476938 0.164035920617084
3150000000.0 -0.5242183335478032 0.2272257434526125
3200000000.0 -0.5039907964090878 0.27623053083521826
3250000000.0 -0.46225568782273635 0.3304936695346678
3300000000.0 -0.43062867340372246 0.38005123171056593
3350000000.0 -0.38137117999939213 0.4188055018113064
3400000000.0 -0.33793824709998166 0.4613101175440256
3450000000.0 -0.2848572454516515 0.48831848524877297
3500000000.0 -0.22875396353100222 0.520534360452719
3550000000.0 -0.1763620295778356 0.5362433776296209
3600000000.0 -0.11691068301470267 0.55640301701413
3650000000.0 -0.05879820048969481 0.5614455389207946
3700000000.0 0.0077599513180649895 0.5622781412147083
3750000000.0 0.06258197596622776 0.5608518963925836
3800000000.0 0.1258776463263156 0.543972929718145
3850000000.0 0.18054550002668987 0.5334642048355235
3900000000.0 0.23670612710813202 0.5022863470647686
3950000000.0 0.2911758893340813 0.4811383204336607
4000000000.0 0.33614494933622246 0.4411284787775226
4050000000.0 0.3858550208475562 0.4055976484341755
4100000000.0 0.4209226242771884 0.3607865885452764
4150000000.0 0.46212086827715704 0.31156795358260764
4200000000.0 0.48612195625343657 0.2637298185227775
4250000000.0 0.5149977257198224 0.204985675385334
4300000000.0 0.5316485324412333 0.15446828594134038
4350000000.0 0.5426476278680173 0.08946728069207002
4400000000.0 0.5528233820493014 0.03738133535669908
4450000000.0 0.5485818415601559 -0.027077965320656806
4500000000.0 0.5470359205242679 -0.08622629729584591
4550000000.0 0.5301872060442842 -0.14183269315885702
4600000000.0 0.5155545498396853 -0.1961945312316457
4650000000.0 0.48594818830098757 -0.2493089900791649
4700000000.0 0.4597971585260284 -0.3028554068352354
4750000000.0 0.4223758326503865 -0.34567071311599734
4800000000.0 0.39420647048905566 -0.3913178341110172
4850000000.0 0.34043537824277714 -0.4270101869442454
4900000000.0 0.2906439720543278 -0.4642256653739918
4950000000.0 0.24197601021490883 -0.4899403464078655
5000000000.0 0.18154208281588508 -0.5117933221730594
5050000000.0 0.13177800393110306 -0.5303937220558786
5100000000.0 0.07036862968365912 -0.5382100413992287
5150000000.0 0.01537388863013236 -0.5457553866343946
5200000000.0 -0.044398264847220016 -0.5401078810243011
5250000000.0 -0.10349277574500501 -0.535436027679345
5300000000.0 -0.15680658151012994 -0.5182693892394474
5350000000.0 -0.20807060046672005 -0.504502453992926
5400000000.0 -0.262044742699212 -0.47324225053043667
5450000000.0 -0.31322865869772776 -0.44314095332104436
5500000000.0 -0.35524120193539965 -0.40730925439909055
5550000000.0 -0.3996035857000701 -0.366463702622459
5600000000.0 -0.43317156798419365 -0.3231520059046645
5650000000.0 -0.46595105649322455 -0.2725634243015931
5700000000.0 -0.4911369039638968 -0.2246338222201526
5750000000.0 -0.5151219439616276 -0.17065708190055517
5800000000.0 -0.5284277208241703 -0.11365943880976012
5850000000.0 -0.5338233591550489 -0.0561901857520633
5900000000.0 -0.538409672157245 -0.002683625115595741
5950000000.0 -0.5329901002809702 0.056694256435501966
6000000000.0 -0.5261228037016591 0.11344189466710042
