! Created with skrf 2.0.0 (http://scikit-rf.org).
# Hz S RI R 50.0 
!freq ReS11 ImS11
!
100000000.0 -0.25065786406936696 0.0626473253688595
150000000.0 -0.24366578956286292 0.09807265879380678
200000000.0 -0.22839264598210574 0.11942703881686194
250000000.0 -0.2120619873950271 0.1523823949611041
300000000.0 -0.19474073385089233 0.1698252809437463
350000000.0 -0.1697069091657042 0.19706351054345275
400000000.0 -0.15042818758049203 0.213271695820172
450000000.0 -0.1175908718169429 0.2287985610980913
500000000.0 -0.09668507084990326 0.2418297970050815
550000000.0 -0.06102959473013404 0.24888711806517036
600000000.0 -0.03625118631827604 0.2597566902696375
650000000.0 -0.004033783939313599 0.25511806671749293
700000000.0 0.027305431702273238 0.2614742395850076
750000000.0 0.054151080794248276 0.25029030653816275
800000000.0 0.0877903238318522 0.2474450932855411
850000000.0 0.11090943518385228 0.23037456192519373
900000000.0 0.14346776523325444 0.21822701618680787
950000000.0 0.16101161953975246 0.19979336556632257
1000000000.0 0.1885909267681668 0.17575307417084407
1050000000.0 0.20176020411377912 0.15613579255765686
1100000000.0 0.21876345305674844 0.12406403074929313
1150000000.0 0.22593993987673372 0.10496594933123532
1200000000.0 0.23225896462981993 0.07133044205494177
1250000000.0 0.2367513600960483 0.055014060146068654
1300000000.0 0.23313886493539107 0.026542583896545943
1350000000.0 0.24186793678779625 0.006963635102311007
1400000000.0 0.23474063057750724 -0.011947373280144958
1450000000.0 0.24259489449881147 -0.03874416890866365
1500000000.0 0.23532307403969913 -0.0569439866047381
1550000000.0 0.2336142970054037 -0.08964382694282601
1600000000.0 0.22442810334028365 -0.10742748792548837
1650000000.0 0.21045963389741387 -0.13992589100629682
1700000000.0 0.20074747059092113 -0.15719959857749505
1750000000.0 0.17599245113822753 -0.18275394457246957
1800000000.0 0.1636184240832881 -0.19986289045249694
1850000000.0 0.13323152377838024 -0.2175354014175536
1900000000.0 0.11665285593768936 -0.233978695688848
1950000000.0 0.08364677964860379 -0.2415838647768411
2000000000.0 0.05491726541436629 -0.2586751404630213
2050000000.0 0.0290721122787255 -0.25433384024787736
2100000000.0 0.001478672890232892 -0.26310370421904944
2150000000.0 -0.020850704688838474 -0.25839283536083346
2200000000.0 -0.05865467511545367 -0.2540883189581656
2250000000.0 -0.07870136996096386 -0.24468951335611
2300000000.0 -0.11223897359279683 -0.2331916627781468
2350000000.0 -0.13156244305357667 -0.22157395323740886
2400000000.0 -0.1606669697848316 -0.20376339629443874
2450000000.0 -0.17885073539871807 -0.18778621938817114
2500000000.0 -0.19722012660845206 -0.1603373912181353
2550000000.0 -0.21659214922026462 -0.14211318528118366
2600000000.0 -0.22506493879870437 -0.11257429682737476
2650000000.0 -0.24039327701190183 -0.09142473553905173
2700000000.0 -0.2426648689766246 -0.06067260276623805
2750000000.0 -0.2536416000843275 -0.03529556665903068
2800000000.0 -0.24941843372923103 -0.008013797474767326
2850000000.0 -0.2527313392008511 0.023972583658932886
2900000000.0 -0.24322797440738447 0.04711913366716222
2950000000.0 -0.23883324075070755 0.07942270528724801
3000000000.0 -0.22648568816060893 0.09946997984766559
3050000000.0 -0.21121625223709303 0.1298911866122482
3100000000.0 -0.19672750177450543 0.14527987445859747
3150000000.0 -0.17426399403627793 0.17172156575767078
3200000000.0 -0.1598551218583206 0.18497259091131102
3250000000.0 -0.13006294027047927 0.2032284858207918
3300000000.0 -0.1118463307820745 0.21889460949514875
3350000000.0 -0.08116078890469906 0.22452057861527588
3400000000.0 -0.05802646179829692 0.23762216244760767
3450000000.0 -0.02986253978777893 0.23548245046413757
3500000000.0 1.4754797804000609e-05 0.24265553366932138
3550000000.0 0.022858026452367945 0.2351470431224172
3600000000.0 0.05248275380255059 0.23704768110116783
3650000000.0 0.07484831226739233 0.22422852987499703
3700000000.0 0.10650576363021488 0.21293817701927648
3750000000.0 0.12443164837795163 0.2017046101632025
3800000000.0 0.15022617436651423 0.18036890289493882
3850000000.0 0.16725424077047973 0.16800860439621376
3900000000.0 0.18380314972626258 0.1401545297702588
3950000000.0 0.2023443849566175 0.1247555588670859
4000000000.0 0.21030146245417833 0.0952344848253822
4050000000.0 0.22493673774516923 0.07392645309940502
4100000000.0 0.2251671340006447 0.04701358354823068
4150000000.0 0.23557074489162796 0.018860670696420164
4200000000.0 0.2296776921777624 -0.005183579354138907
4250000000.0 0.23210680839999054 -0.03609290245238339
4300000000.0 0.22378887202254158 -0.0566601872283142
4350000000.0 0.21440158901094006 -0.08804551613685274
4400000000.0 0.2064559829637747 -0.10667046255231372
4450000000.0 0.1888769621871534 -0.1340022270430324
4500000000.0 0.1773470210819814 -0.1541758228959199
4550000000.0 0.15415850361010408 -0.17409452749739973
4600000000.0 0.13771510026234937 -0.18867047797340983
4650000000.0 0.11008315246440008 -0.2014597071855578
4700000000.0 0.09020484944706278 -0.21651794482582346
4750000000.0 0.06278420509368894 -0.22039753444182397
4800000000.0 0.04635195130777547 -0.23332096814452474
4850000000.0 0.012833091590373 -0.22961467125207327
4900000000.0 -0.015664373908934805 -0.23476376867529816
4950000000.0 -0.038996262857556536 -0.2279731239127833
5000000000.0 -0.0705873329615476 -0.22137691144181382
5050000000.0 -0.08990183465104426 -0.21487307653301166
5100000000.0 -0.11761790568471295 -0.2008594250158253
5150000000.0 -0.1372794278232272 -0.19008435230071136
5200000000.0 -0.15869061619064312 -0.16917189006503774
5250000000.0 -0.1787248032601682 -0.1541588823918637
5300000000.0 -0.191761337144219 -0.12992514823198437
5350000000.0 -0.2058440087583141 -0.11406959281983492
5400000000.0 -0.21647186459588807 -0.08434131286068709
5450000000.0 -0.22829232768654525 -0.060623215217244154
5500000000.0 -0.23036180185213817 -0.034378816655916286
5550000000.0 -0.23541820818199022 -0.00501383826085902
5600000000.0 -0.2330746330920982 0.01727710372316374
5650000000.0 -0.23156579936175697 0.04609156626652907
5700000000.0 -0.22404974765323796 0.06882827450382849
5750000000.0 -0.2190605218572829 0.09667078094764102
5800000000.0 -0.20436506851232844 0.11857841818803935
5850000000.0 -0.18726122003867174 0.1418083490094694
5900000000.0 -0.17300959280434275 0.1594944873024177
5950000000.0 -0.1508620956678904 0.18021842192684479
6000000000.0 -0.13253634440149736 0.1966075573104671
