! Created with skrf 2.0.0 (http://scikit-rf.org).
# Hz S RI R 50.0 
!freq ReS11 ImS11 ReS21 ImS21 ReS12 ImS12 ReS22 ImS22
100000000.0 0.04943794738914928 -0.030530698913786986 0.6227293844138797 -0.15167898798892412 0.622283167060844 -0.1514078251976446 0.048526543685786475 -0.0286034611253429
150000000.0 0.04119761858033454 -0.04172935920769421 0.5976759691049759 -0.2227161590334165 0.59734589082245 -0.22269259399905217 0.037831399657692416 -0.03918999741602643
200000000.0 0.03428647049670455 -0.05735360369202479 0.5672236287250189 -0.2904674187909823 0.5666882785473483 -0.29057926888902796 0.03218748839600803 -0.05327961456040089
250000000.0 0.022678448242809894 -0.0660000045243009 0.5276636528035767 -0.35238499401284956 0.527210097837065 -0.3524944580210001 0.019376533436973847 -0.06052158082850496
300000000.0 0.010197734597694103 -0.07869268182418646 0.4822580914902814 -0.4099222583997588 0.48178049804415946 -0.40993778828192834 0.008014524257145716 -0.07131859710374819
350000000.0 -0.002694575134376709 -0.0835415482473495 0.43017805668847037 -0.46101999840730823 0.42985395203651583 -0.46116307682671887 -0.005018572513930578 -0.07532319541969486
400000000.0 -0.01993474377174089 -0.09082008373973369 0.3723576851383297 -0.5057657397379082 0.3718862119686886 -0.5057509073573949 -0.02164981823609754 -0.07926387077126915
450000000.0 -0.03340867269670851 -0.09219766325889944 0.31075765140865047 -0.5436111182932292 0.31050221382302234 -0.5432256348732144 -0.03433592812951053 -0.07995722061523011
500000000.0 -0.05323214323992055 -0.09161199582006738 0.24512118257849655 -0.5722111701069853 0.24489739478269268 -0.5722119205144601 -0.05316332563970592 -0.07711443954009273
550000000.0 -0.06697550431624108 -0.0913442481871009 0.17712590255538546 -0.5953601506145592 0.17679668297685436 -0.5951020117791681 -0.06543093026929427 -0.0762602031547688
600000000.0 -0.08606681504707292 -0.08396451333155919 0.10848185268257377 -0.6073121712689221 0.10823793529843027 -0.6071062032756693 -0.0821491060119274 -0.06573559816904688
650000000.0 -0.1003596644635546 -0.07956111085409316 0.037731658171806626 -0.614632759504074 0.03763409439041529 -0.6142382450699281 -0.09495561576623307 -0.06191626021920833
700000000.0 -0.11567713466383817 -0.06620812462863895 -0.031318603894779785 -0.6104369954239155 -0.03144088361759356 -0.6103822533183886 -0.10741130249805877 -0.045709675004542955
750000000.0 -0.1297970092884278 -0.05780719266976024 -0.10090084091955746 -0.6014052265424453 -0.1007099481510838 -0.6012155954655198 -0.11946126241263023 -0.03770524499870666
800000000.0 -0.13979735300635002 -0.040735208048833495 -0.16626531192449645 -0.5823791033652532 -0.16669816802436765 -0.5821895408089487 -0.1265213894308228 -0.019059389140730604
850000000.0 -0.15172702110604214 -0.028105946847975766 -0.23101125973740286 -0.557968169212332 -0.23123774130124158 -0.5575888376542161 -0.13644552185980688 -0.006687544450231134
900000000.0 -0.15692724943903172 -0.008793170306471892 -0.28988487901114307 -0.5254288381312997 -0.2901154117263479 -0.5250554238396296 -0.13815803242343688 0.011616116885597924
950000000.0 -0.16561483864565832 0.00858929949249293 -0.34637652347561215 -0.4869043991402619 -0.346094229166879 -0.48691314877762804 -0.14360330569644247 0.0281489021440995
1000000000.0 -0.16517335642701858 0.026504581604242128 -0.3959733122448741 -0.4433209105618696 -0.3961691487399461 -0.4429892466996769 -0.14207575258039068 0.04458179853054836
1050000000.0 -0.16760330286068764 0.04743710032568042 -0.4405944225900063 -0.3937037123955811 -0.44043781554521366 -0.39377110637049784 -0.14120628853737616 0.06438915259743719
1100000000.0 -0.16427960737366776 0.0637915468808601 -0.48004811545775417 -0.3413312047332922 -0.4802255773099913 -0.3407105653988179 -0.13701041848453166 0.07811872688437994
1150000000.0 -0.1600990607353429 0.08489444569953106 -0.5112337684909269 -0.2841451427163219 -0.5115298062210543 -0.2836140926887543 -0.12973597676660903 0.0978527052853367
1200000000.0 -0.15328807338852168 0.09876991417058392 -0.5384543211575329 -0.22519038954134682 -0.5386681825316633 -0.22425258524069658 -0.12310893888078393 0.10942462523331228
1250000000.0 -0.14254404660201614 0.11811851732607097 -0.5557934264626399 -0.1628988278880283 -0.5559554720396033 -0.16229163673391656 -0.10997891336129816 0.12709201188469393
1300000000.0 -0.134475629637382 0.13033412337235745 -0.5697791578244291 -0.09925537767886167 -0.5695928872204462 -0.09888882646685858 -0.10301044826776651 0.1372296719378908
1350000000.0 -0.11821574429556157 0.14453754643627553 -0.5732220779537553 -0.036428544027852075 -0.5732064133378872 -0.03637633132276678 -0.08556091724841118 0.14958963643494455
1400000000.0 -0.10874114811299476 0.15538158288614945 -0.5725385877380046 0.027882149286690874 -0.572612237791596 0.02823414455527732 -0.07628180833593666 0.15806673195164497
1450000000.0 -0.09054212137231264 0.16242894822025022 -0.5625231894633036 0.09000569091933462 -0.5624631588198399 0.08964793830772091 -0.05833494771625543 0.16454639320120706
1500000000.0 -0.07905213078442755 0.1723626981336439 -0.5480608489874058 0.15141132359527606 -0.5479429824526111 0.15153513575253097 -0.04663984446582918 0.17127012199330804
1550000000.0 -0.06106177965800111 0.1742837914640665 -0.5257057336662299 0.20925083678568998 -0.5251617409704675 0.20936248863918 -0.029963498912140184 0.17315805267735393
1600000000.0 -0.047246218530574 0.18053365950247313 -0.4975609774609169 0.2654755777613101 -0.49742358081194304 0.2652597072480507 -0.015753471714875678 0.1769122123494762
1650000000.0 -0.03251446091926517 0.17854583552966233 -0.4638880577355038 0.31725387567077235 -0.46362009212341093 0.3172177509697139 -0.0028249761361715184 0.17485955644853873
1700000000.0 -0.01697404601127287 0.18082071785314696 -0.42408017632967354 0.36494652558778345 -0.4241387638051275 0.36485150970017044 0.012629318691523804 0.17519715316813178
1750000000.0 -0.006236747108597923 0.17650238006657443 -0.3804635458833943 0.4085433175246169 -0.3804005508849231 0.4086233721004387 0.021671566882630246 0.17190726932369405
1800000000.0 0.00938571356712884 0.17440384336627635 -0.3314531507180807 0.4454472639683395 -0.3314971161653668 0.4457754142829202 0.03737870683058685 0.16810737210781396
1850000000.0 0.016422874387137146 0.17005435666821636 -0.2798449485802051 0.4791527535407232 -0.2798826225704636 0.47908674321260086 0.04326517423732064 0.16532204604889944
1900000000.0 0.029740318567702796 0.16335751556163478 -0.2239315186512388 0.504407727261621 -0.2235957708975505 0.504459725112003 0.05638939977613733 0.15862520257827334
1950000000.0 0.035637955552313604 0.16147789896206316 -0.16611506591574457 0.5257895344654379 -0.16599570819587378 0.5257077786210737 0.06259424881550389 0.15662969083144618
2000000000.0 0.04390828668273185 0.15218440405824465 -0.10750136878211627 0.5379766051907104 -0.10740046801046838 0.537792888934229 0.07109972947298139 0.14788838067270943
2050000000.0 0.04803264896464059 0.15056967927242737 -0.04710293400070149 0.5462448918980474 -0.04690189805402785 0.5462571103267435 0.07670238014908785 0.14646857607940778
2100000000.0 0.051466131557305075 0.14209479537092146 0.014019007712492974 0.5453291950654944 0.013663036949183959 0.5453244829193475 0.08207513268059208 0.1386902842787212
2150000000.0 0.056024272881331744 0.14166188007239086 0.0733266485787914 0.5400867187196282 0.07336724515036161 0.5400356964657657 0.08670369287900423 0.13738396003209005
2200000000.0 0.05742344670438238 0.13464337582953184 0.1327841465755879 0.5260632150810811 0.13256971468322173 0.5259374355856592 0.08992419264680768 0.13151746057988767
2250000000.0 0.062192524007497085 0.1333915717472092 0.1901467889181722 0.5062165980148366 0.19025842711872115 0.5061229195377928 0.09598362542158335 0.1284995734212347
2300000000.0 0.061218101251791494 0.13157946359889042 0.24417914300443255 0.4805585707078052 0.24412417066564163 0.4802731934643788 0.09795804167697676 0.12690309230274033
2350000000.0 0.06659744022560764 0.13128197680242187 0.29497742740566657 0.4486484660819013 0.29544378783041614 0.4481051921881033 0.10408490122765099 0.12357887364084792
2400000000.0 0.0662570266864458 0.13274709384925198 0.3419338626493415 0.41188606209092965 0.341969347707211 0.4115291341331486 0.10721209646815646 0.12395902314403086
2450000000.0 0.07084122473184183 0.13115114928306681 0.38430027930621113 0.3684411420881624 0.3838882118451525 0.3684962516926392 0.11293594755797859 0.12011803260592396
2500000000.0 0.07341429013944184 0.13641714791399698 0.4211426897950567 0.3233031620502402 0.42098878558001873 0.3230369807072585 0.11882746910978144 0.12254060459777089
2550000000.0 0.07862537236457195 0.13543422782466544 0.4518921250110876 0.2722560740309446 0.4520759920523287 0.27168158969481754 0.12407846723182031 0.1178873623609568
2600000000.0 0.08630934019723258 0.14201059073390387 0.47783079743533297 0.22048393363012883 0.4777111986679579 0.22024705231501013 0.13382950278126599 0.11973300811166711
2650000000.0 0.09188361896779576 0.14200845672988333 0.4964174767946634 0.1634627404313429 0.49626544777376214 0.16328475996075748 0.13954681339489916 0.11545080480147002
2700000000.0 0.10428418793822776 0.1447294031036077 0.5098979644387543 0.10620068754553309 0.5096225801684832 0.10644942762716357 0.15146741568940877 0.11385989432063945
2750000000.0 0.11145495120066304 0.14595984230106818 0.5147520569334473 0.049870331027607184 0.5146297940971812 0.04975778980101511 0.15906281744874678 0.11089203453298209
2800000000.0 0.12621726693659957 0.1468141753344454 0.5145965393339134 -0.007182823314575426 0.514562000749547 -0.0075568391410768855 0.17170047625364693 0.10498622546973907
2850000000.0 0.13643770058675275 0.1467662979097219 0.5072614002338959 -0.06310470189992187 0.506716302843729 -0.06327032884729981 0.1802296542312744 0.10004769525922752
2900000000.0 0.15326212584032273 0.14297377757315133 0.49439045330188863 -0.11837424599494284 0.493979935774057 -0.118069024370239 0.19274038608351976 0.09120237648556415
2950000000.0 0.16676903714285493 0.13980538446160815 0.4753455687645709 -0.1701425611754328 0.4754535598873672 -0.1701710642939932 0.20214748506765517 0.08327623848067278
3000000000.0 0.18285328677598733 0.13052781516050485 0.4506168307745992 -0.22089590957671124 0.4505401520241998 -0.22044027656876095 0.21170226258393 0.07020352476966386
3050000000.0 0.19766227136291767 0.12420562250469713 0.4225025171135363 -0.2644948931527951 0.4220493819847447 -0.2646769186643084 0.2226583278136196 0.06004248802678758
3100000000.0 0.21164509719785699 0.10871289565049948 0.3881282689347778 -0.3076924044529977 0.3875541997612194 -0.3079473534015037 0.22778896087312298 0.04448501119866027
3150000000.0 0.22718348741491537 0.09749950881012315 0.35268583262983655 -0.3440957930207846 0.3522230160842018 -0.34405331295826536 0.23754584109083438 0.031000851894951848
3200000000.0 0.2363917809478733 0.0779507874111087 0.3105907678566899 -0.37875557414485167 0.3103413551098025 -0.37867916555219083 0.23851278238458812 0.01480689927087555
3250000000.0 0.24966169070247482 0.059692267594168756 0.2689275455433098 -0.40764974257566344 0.2690819007164214 -0.4072623825365652 0.24478591434080912 -0.0020842665000721378
3300000000.0 0.25304772779061835 0.040656046381335784 0.22156455327376035 -0.4324095633910649 0.22162733593421607 -0.4320073885827353 0.24337307670538325 -0.016974503365670215
3350000000.0 0.2604700157288409 0.017490896455980384 0.17606423807999577 -0.45181686471068494 0.17648361505164734 -0.4513722355754532 0.24472727899152846 -0.035478044949381976
3400000000.0 0.26023647517028536 -0.0008681701376991487 0.12780413640377594 -0.4669595396165126 0.1275723657390353 -0.46695748782581614 0.24259045118527317 -0.04914616971273589
3450000000.0 0.26079881737718463 -0.024496655428740303 0.07865772094849474 -0.4778300298563844 0.07824049948374442 -0.4775857877746522 0.24011798614943777 -0.0675094747685307
3500000000.0 0.25765555713498267 -0.042978276260386694 0.026941141050487782 -0.4838865086483808 0.027169694615282576 -0.48371122288186547 0.23624622215651297 -0.0808513653532975
3550000000.0 0.2512874188225016 -0.0648940458123859 -0.024273621450871245 -0.48507806911939827 -0.02450168139427998 -0.4847405373739888 0.23110365209421707 -0.09737076494153844
3600000000.0 0.24511874163784314 -0.08218521881614543 -0.07740220147223889 -0.4800208708982226 -0.07721495954275735 -0.4800709687726514 0.22632631256632693 -0.11115944490575633
3650000000.0 0.2340875012352266 -0.10084417546100607 -0.13019267529453418 -0.46952480048289974 -0.12987859434761503 -0.4691761434723001 0.21772518122138265 -0.12657212499070572
3700000000.0 0.22646045658294373 -0.1170879832236979 -0.18128988948665142 -0.4531102573332406 -0.1813841044043155 -0.4528030366888032 0.21098607293571187 -0.142457593606527
3750000000.0 0.21156643690202082 -0.1317929805370658 -0.23092142780469732 -0.4307711218508358 -0.2307944445599484 -0.43067674437040454 0.19880704954872494 -0.15464384141387866
3800000000.0 0.20058200580949948 -0.1482883775166492 -0.27698947867518914 -0.4034478310084824 -0.2767653471444119 -0.403467390026517 0.18756003273462352 -0.17069532707476318
3850000000.0 0.18388999117135787 -0.15801854637211935 -0.3208774651440479 -0.370112374762526 -0.3207668712548337 -0.37032756471518247 0.1737963367994733 -0.17959577124313153
3900000000.0 0.16991999555353218 -0.17097097271484896 -0.35939113885264284 -0.33342931229591016 -0.3596975172471167 -0.3329229837337661 0.15810796886655928 -0.19418264828033072
3950000000.0 0.1526915628827123 -0.1780205096654169 -0.396107857123703 -0.29007180551142575 -0.3958278263444428 -0.2899445415555579 0.1435490876705956 -0.19962575421300172
4000000000.0 0.13372602695400365 -0.18719612817539563 -0.42558961137762946 -0.24538481397610992 -0.4254336088551636 -0.2450117666679415 0.1253603064602969 -0.2081844713311344
4050000000.0 0.1172674841950484 -0.1901302442662657 -0.4507832509509065 -0.19572016856112243 -0.4509644277383781 -0.1950283606676913 0.10939281557918769 -0.21130687060337636
4100000000.0 0.09700776748549512 -0.1941825021633077 -0.470345441034695 -0.14370052165765182 -0.470144346848793 -0.14346615628800144 0.08964664690500805 -0.21438039775658643
4150000000.0 0.08082937386730969 -0.19411904225975374 -0.483638553023692 -0.08943676024051567 -0.4836325861980289 -0.08952609085878312 0.07418832644768099 -0.2137111221470955
4200000000.0 0.06150677026574084 -0.19172595648446888 -0.4909765665545987 -0.03385075885540207 -0.49081838107598014 -0.03421040192866126 0.05599287443015101 -0.21184413365202287
4250000000.0 0.046418034104572445 -0.1883776389799364 -0.4917990897774316 0.022445785978505137 -0.49151523427476207 0.022688071898358628 0.04091429525133352 -0.20894390297615967
4300000000.0 0.029643976842105336 -0.18074982209740512 -0.48627078106975935 0.0783205310950557 -0.4859491321123405 0.07826850972599395 0.02656742201660873 -0.2013548479900387
4350000000.0 0.016994965397672597 -0.17504720575156657 -0.4742871954822002 0.13267884446267575 -0.47411781328717656 0.13261775681076027 0.012661041664387758 -0.19630836920793818
4400000000.0 0.005647409271008368 -0.1633810070018665 -0.4557792873728066 0.18709862766582122 -0.4559928959851968 0.1865757189323322 0.0037236605256894054 -0.1856167508515041
4450000000.0 -0.00603992771194662 -0.15511783896732972 -0.4315905706815624 0.2375929666575342 -0.43146186493238353 0.23723124847036584 -0.008612819986659349 -0.177678500620567
4500000000.0 -0.011875992331540033 -0.14133577170684736 -0.4016174718233634 0.2850831766977795 -0.4010757014969539 0.2856424654109508 -0.013505320817498764 -0.16733152204242016
4550000000.0 -0.019386384734530505 -0.13150025426146708 -0.36556194560600846 0.329925773804422 -0.3650939855357142 0.3300138733429191 -0.02127160407614584 -0.15762952576749586
4600000000.0 -0.020221999229009493 -0.12006706294882427 -0.3247204215127456 0.36962635064013366 -0.3248004735921257 0.369415852583086 -0.02234035285354437 -0.14774892248173152
4650000000.0 -0.02318781196994323 -0.1086170014316775 -0.27927756933401554 0.4044108199872228 -0.279280397934594 0.4043520336280056 -0.02644133378783283 -0.1376280509681451
4700000000.0 -0.019768145697655795 -0.09974020419861063 -0.22999445439697477 0.433787798507696 -0.2297820182399073 0.4335955081472351 -0.024513737370144617 -0.13007181667844994
4750000000.0 -0.01842822788119717 -0.08954220158663437 -0.1773987678774689 0.4570383034217466 -0.17738680390723324 0.45692714375771887 -0.023634922453131254 -0.12138255684567009
4800000000.0 -0.01306370044364107 -0.08426741700595797 -0.1225388046814843 0.47386682109229133 -0.12273915244641684 0.473611080681785 -0.02065191230328895 -0.11690590863001002
4850000000.0 -0.007898810463683719 -0.07692655947955174 -0.06581866738050549 0.48373327075334294 -0.06597820586327818 0.48359825842823606 -0.01659505140282545 -0.11100332445071916
4900000000.0 -0.0016498992801689018 -0.07490946585341844 -0.008275398461410786 0.48704308234604826 -0.00827714661035346 0.4869475553773925 -0.012406931721488271 -0.10986356937090556
4950000000.0 0.006039025270450471 -0.07285799175374169 0.050489261011335315 0.48274640569598326 0.05061983178083083 0.4829180759391233 -0.006466629756829503 -0.108289497367052
5000000000.0 0.011875450963410264 -0.07389035897611347 0.10586819961706678 0.47249454355888176 0.10591336752752861 0.4722095194225378 -0.0039928355305328105 -0.10873777263189939
5050000000.0 0.019911780513137984 -0.0766692020067125 0.1604327071212445 0.4549377664775386 0.16053188353916456 0.4548674003039052 0.001898557820828239 -0.11249200675662963
5100000000.0 0.024241036679494316 -0.0811296647098038 0.21225763314751306 0.43123164446501583 0.21212965014970092 0.4312742838519028 0.0037575820448491762 -0.11535563512426482
5150000000.0 0.029747050741233134 -0.0891414857755123 0.2606616341730914 0.40105266352866625 0.2605633147205771 0.40107811481724887 0.00754261480701578 -0.12311200390215889
5200000000.0 0.03220150371661193 -0.09578164800777074 0.30502530084128904 0.3661091862331006 0.305110189999682 0.36566854884830835 0.007725465044037261 -0.12802162220663746
5250000000.0 0.03549389027270331 -0.1074225810842991 0.3443715729174307 0.32588494545820584 0.3443536035271759 0.32551331678080625 0.007244872605390648 -0.13783566977742578
5300000000.0 0.03340616094188415 -0.11594648036620549 0.37925465903369193 0.2800542695152933 0.3792317481492803 0.28034816230575943 0.005737260898714784 -0.1454631161168524
5350000000.0 0.02949621527399811 -0.12823655949025964 0.40709132099453627 0.23148636131323044 0.407211066040133 0.23119254372536652 0.00016229338729047225 -0.1554770275326475
5400000000.0 0.025452011513036502 -0.13864815173677247 0.4288183810217121 0.18065110824267874 0.42896038652289226 0.18062229159338772 -0.004635055481584653 -0.1647414062358922
5450000000.0 0.01717030110233975 -0.15011305921731755 0.4443469270619947 0.12746571152330902 0.4441140055908169 0.1276398364143531 -0.013638679827621914 -0.17357954245840299
5500000000.0 0.008354653872432057 -0.1588088167282602 0.4531592502302935 0.07293083641773572 0.45287947783638405 0.07294264955341631 -0.022690278254516007 -0.1811312260480904
5550000000.0 -0.005177188117962747 -0.16900710436230026 0.45501698001376384 0.018716347986484454 0.45449914395472907 0.01879902142866584 -0.03539474393701579 -0.18810833034571872
5600000000.0 -0.016789786919796733 -0.17558410500742644 0.4501303774352938 -0.03489182971704769 0.4498016781518152 -0.03509982242275439 -0.04817945911488409 -0.19399564096434815
5650000000.0 -0.033355793560736716 -0.18054983838964359 0.4396048286090594 -0.08688305224226478 0.4392879394703357 -0.08690351225037059 -0.06269505002815552 -0.19633820126833185
5700000000.0 -0.04881584222286945 -0.18489487962849827 0.42208967425900734 -0.13784004012821638 0.4221304533185 -0.13736059838929493 -0.07850967932506467 -0.20046559013554088
5750000000.0 -0.06448559968892417 -0.18549698954945337 0.3997688762958051 -0.1854930084702122 0.3997828580755253 -0.18534553210370927 -0.09331264159652798 -0.1999582793230066
5800000000.0 -0.0827002510671005 -0.18642954832799757 0.37135989164039396 -0.22898144288657982 0.37122440096189563 -0.22898639915909585 -0.11106732930143629 -0.19995482044900276
5850000000.0 -0.09953998002408387 -0.18254093778845404 0.33831075532814525 -0.26876358722268984 0.33813750009561466 -0.2686995838895719 -0.1271405232835207 -0.1954567160649287
5900000000.0 -0.11744512512600475 -0.17852311291470757 0.30035267385650805 -0.30336525179972423 0.30004256717040445 -0.3030634377863679 -0.1460431025198362 -0.18946863226038496
5950000000.0 -0.13169914350224438 -0.1693308327918015 0.2597794269111315 -0.3326412425958583 0.2596916288413592 -0.33264447494386534 -0.16043481645209604 -0.17981087545279276
6000000000.0 -0.14793885630486941 -0.16107969646095283 0.21810751947367862 -0.3553400381759712 0.21770006767563477 -0.3551502298562925 -0.17485386957352123 -0.1662539932720022
