! Created with skrf 2.0.0 (http://scikit-rf.org).
# Hz S RI R 50.0 
!freq ReS11 ImS11 ReS21 ImS21 ReS12 ImS12 ReS22 ImS22
100000000.0 0.00861232860677241 -0.01613980141733348 0.00010644499171759991 2.44305715656916e-05 -1.0682751570812948e-05 -3.983556259012275e-05 -0.6051268845519263 0.1566849078545336
150000000.0 0.004817227854060918 -0.021394838966259894 -2.0906261662732767e-06 -3.207976585236592e-06 9.717298691724226e-07 9.373028471572014e-06 -0.5801477444519311 0.23073318934132095
200000000.0 0.001659030252360535 -0.03087051292826361 -6.273523088603389e-05 1.925768256336138e-05 8.40537530007404e-06 -2.351079497971282e-05 -0.5453036838613078 0.2969368710242085
250000000.0 -0.004064614611322104 -0.03518752057794124 5.827967748943102e-05 6.73404755536464e-05 -5.947036065076137e-05 3.496301626586997e-05 -0.5029683773256247 0.3616890543442044
300000000.0 -0.009783160613646358 -0.04369722093632779 -1.5203164590214081e-05 4.620524940819149e-06 -5.420351717712877e-05 -6.130102016124653e-05 -0.45420546783170146 0.4165428440475827
350000000.0 -0.015196013983914798 -0.046258432033255414 -4.2385311218652705e-05 -5.643095022512552e-05 -2.4010088503650076e-05 9.205654919908385e-05 -0.3972737227085005 0.467906459740914
400000000.0 -0.02457501036678524 -0.05303779508632439 -3.855466831522293e-05 -1.2616665804422096e-05 -9.298501901084197e-06 -1.4895831119549224e-05 -0.33808239497809983 0.5101720165648921
450000000.0 -0.030467770818277444 -0.05450588913979659 -6.683440229885663e-05 8.758299797290487e-05 5.342875412461655e-05 0.00010507971204861488 -0.2706766832399246 0.5451525197664967
500000000.0 -0.04174209261409725 -0.05737495176804492 -7.340452577744927e-05 -5.5463655749677656e-05 -6.104489067094281e-05 6.127954207911934e-05 -0.20278538650368055 0.5725017813328951
550000000.0 -0.04848054899229418 -0.05981003586987488 -0.00013032415941928425 1.9705131286237685e-05 4.9190479744805915e-05 0.0001299503075110082 -0.12956144373228054 0.5882559426295351
600000000.0 -0.06015972331034551 -0.05896945754828218 3.0611228289924794e-05 1.0824564190262915e-05 0.00011883739280353678 2.620480307865271e-05 -0.05759960685586462 0.5987628571548624
650000000.0 -0.06861438585719966 -0.060465569617278475 6.77829312229887e-05 -0.00013090002789201867 4.04050938244829e-05 4.5749041878881295e-05 0.016434289024042693 0.5960516868795326
700000000.0 -0.0795135460369471 -0.0561039141235917 -8.137570151779887e-05 4.2813426283592394e-05 -2.8328937491043926e-05 3.3427437170323024e-05 0.08938569102641857 0.5882791472377102
750000000.0 -0.09013229383983411 -0.05575953874077295 -3.870675370075662e-05 4.7975227769000445e-05 -4.138974966414013e-05 -9.664834865895045e-05 0.15968209274452996 0.5677850731148878
800000000.0 -0.09886008096902185 -0.049042570171257564 5.0154639492045094e-08 6.644746172278449e-05 -2.8389644560841616e-05 8.653371827383338e-06 0.22900283271288757 0.5418530376446062
850000000.0 -0.11104673235888818 -0.04620777646996253 -2.1588110380575303e-05 8.126987680881704e-05 -4.9469324611135405e-06 7.639849473026643e-05 0.2913770314018236 0.5047883968689684
900000000.0 -0.11829110377134926 -0.03761915869397103 2.2506808210015654e-05 3.27084571137438e-05 -3.075567334867235e-05 9.24457953523659e-05 0.3519145919220952 0.46140268112669064
950000000.0 -0.1309127297847295 -0.03064600610308183 7.438340781509102e-05 -8.586591272548352e-05 4.349373653380455e-05 6.672124789477715e-05 0.40296057520213097 0.4106484830125877
1000000000.0 -0.13641589683720087 -0.022431993675473372 6.16825466244005e-05 0.00014601224459759386 -3.6964302595147067e-05 5.9816068467677015e-05 0.45044332084694194 0.35248263991206574
1050000000.0 -0.14725770476750966 -0.010538001499519663 0.00012953103814340695 8.746738503162185e-06 0.0001072001937174947 7.478451844920363e-05 0.48787670542547 0.2905028229694813
1100000000.0 -0.15258036124680716 -0.0019695244309204324 9.005777992691601e-05 8.683189800629492e-05 -7.279964798799188e-05 0.00019471116357674874 0.5180872875486444 0.22098685720958358
1150000000.0 -0.16061279538053055 0.01258397829456158 0.00015188884213518516 0.00010082341750613223 0.00012259589298401565 0.00013646185632818403 0.539104920214936 0.1509023616705573
1200000000.0 -0.16538452136431964 0.022313424487757316 0.00018260801387663244 0.00029574526712751285 0.00012051289811474748 8.47102689501546e-05 0.5489605169132826 0.0745828129739612
1250000000.0 -0.16905349703680547 0.038816909711996396 8.123395194660948e-05 0.00013254952896730692 0.00010534918885832625 0.00014901483957670367 0.5512781496935897 0.0005390137712637359
1300000000.0 -0.17446593006793487 0.050725060602551955 0.00013982330032132626 0.0001734035351248173 2.5762292006426124e-05 0.0001024995681714083 0.5393511174156613 -0.07598220827243735
1350000000.0 -0.17347415018895324 0.06687399897270024 0.0001547632014945646 0.00018867910511498426 4.6004357231170015e-05 0.00011673824071830959 0.5209720453993576 -0.1500725308693606
1400000000.0 -0.17765783746805414 0.08185349561685093 0.0002084312014831624 0.00019439922892360386 0.00015544251689185478 0.00011581923441864239 0.48781256837670234 -0.22081453761005654
1450000000.0 -0.17394130657541357 0.09589284770147112 0.00014015515100011 6.42229655500014e-05 0.00017557238384330337 0.00013369600366159397 0.4474920611455955 -0.2889797165546519
1500000000.0 -0.17518432851114585 0.11403399117451042 0.00020009223603083596 0.00016936185614120695 0.00031178307379795293 0.00014329248678808876 0.3956580358981955 -0.34731478803728527
1550000000.0 -0.16957132153298282 0.12734459187867905 0.0002894164008444077 0.00015420242924675653 0.0003865773189684955 4.9516839571653625e-05 0.336365913146205 -0.40125896506437125
1600000000.0 -0.16625069640773876 0.14675823337242036 0.0003387225182724808 0.00011595434900575295 0.00033634117922145 1.0943344958070084e-05 0.26847081811705487 -0.44334197603744413
1650000000.0 -0.15989205712428856 0.15881231152043404 0.00031405426997266507 0.00013755294958724135 0.00020572102213999106 5.213217194266091e-05 0.19358980369184198 -0.4777569706107885
1700000000.0 -0.151434621839435 0.1778495951059602 0.00026516166418750255 9.442808761713642e-05 0.00035923949402712235 7.916796354482244e-05 0.11570693714685885 -0.4982550692513811
1750000000.0 -0.1446725734482144 0.18976148187695518 0.00037611959259412113 4.0400699668639465e-05 0.0004001566935889816 0.000127656734895594 0.032040220237532044 -0.508208564991411
1800000000.0 -0.1311145121489617 0.20629874568906492 0.00041599202658527447 1.7707126758337386e-05 0.0003526166874129164 -2.0422943770247254e-05 -0.04937172201520806 -0.5047369732573481
1850000000.0 -0.12359321120889856 0.21997342830880695 0.00039352973144229415 5.0827513886745324e-05 0.0005876417963123562 9.628441083788062e-06 -0.1328761848348137 -0.48734355745945573
1900000000.0 -0.10700494627865428 0.23223436395573954 0.00047415945317252987 -7.840423942475532e-05 0.0005583136744348627 -0.00012697535185131757 -0.2109438620300217 -0.4596608428974238
1950000000.0 -0.09529568358730964 0.24795395865979442 0.000432425727553777 -4.9138576984827236e-05 0.00044450491300661294 -6.869368027273781e-05 -0.2851655466750844 -0.4158255148424666
2000000000.0 -0.07870148560957063 0.25566719855662084 0.0004909782260315447 -0.00011309805963219172 0.0006080505564643519 -0.00017132425829405443 -0.3515116619834587 -0.36513284357066356
2050000000.0 -0.0640223899252189 0.26962091861792314 0.00045083549150476377 -0.00013914466183291772 0.0005411342561018595 -0.0002664069204987895 -0.40810353833700425 -0.3002904829012992
2100000000.0 -0.047120592790730186 0.2757136155777762 0.0005562437355159589 -0.00020299913375602675 0.0004138723015573213 -0.0001909025492316723 -0.45542952114817103 -0.2314539339829315
2150000000.0 -0.028972429000514773 0.2872716526692196 0.0005024387465067287 -0.000222169094849804 0.0006065954628762686 -0.00032525131889719644 -0.48995230731552974 -0.1530623845263268
2200000000.0 -0.01059600173612163 0.29073759510216546 0.00045005707009363025 -0.00035958728219698266 0.0004929623490816519 -0.00034235207097875345 -0.5141270262459914 -0.0712891428118487
2250000000.0 0.011812489776318177 0.29752635358465684 0.0004216361658310344 -0.0004589732963246593 0.0005307329092355163 -0.0004517546946928332 -0.5221650957659123 0.011392391996152601
2300000000.0 0.02850283158729066 0.30086002041280474 0.0004920412521860703 -0.0005367008091263811 0.00047249508641297017 -0.000503299800088272 -0.5202023644332144 0.09554293275424693
2350000000.0 0.05247900781827553 0.3038166698674422 0.0004628797153311061 -0.0005694132834970311 0.0005520958840689287 -0.000400053751061598 -0.5037414314008609 0.175844973472927
2400000000.0 0.0704898776904944 0.30570766645439396 0.0004796695140847271 -0.0006343244114101997 0.00042361665238937096 -0.0006672993526010306 -0.47746810398758277 0.25400689224307355
2450000000.0 0.09415389308679427 0.30210180967711214 0.00040955573490011383 -0.0008375352437116379 0.0004779688957698425 -0.0007339748828982814 -0.4391330626709466 0.3252539295227125
2500000000.0 0.11312739797944145 0.3033674081346419 0.00046290883249889636 -0.0007386891468752208 0.0004392914546889875 -0.0006880633790392069 -0.39133693768330086 0.3916115241097861
2550000000.0 0.13543209280601734 0.2951855572217816 0.00046942539374725245 -0.000771273029710076 0.0003197840884491558 -0.0007829711236246535 -0.33656304199413184 0.4470372676936884
2600000000.0 0.15682265382193022 0.29416872435494 0.00026222146064151824 -0.0010074055171746625 0.0002859356314900798 -0.0009565274246405601 -0.2734647832897831 0.49530728810642244
2650000000.0 0.1764702811634274 0.2833699424389978 0.00021935190973546806 -0.000983584491240308 0.00015421185564310318 -0.0011288002811710234 -0.20699778143796116 0.5329654280947768
2700000000.0 0.1996635750264345 0.2761224302430265 0.00013304054536102472 -0.0011467227075138936 0.00017867362837185204 -0.00106570000522511 -0.13501901919190498 0.5611895809892071
2750000000.0 0.21626676854345406 0.26497151186456686 -4.284963461848771e-05 -0.0012213531971518071 1.1265733386352347e-05 -0.0011229702293542338 -0.06262593342204617 0.5794882463500254
2800000000.0 0.23815271283475622 0.2539731117140529 -8.744410875895503e-05 -0.0012102417767616796 -6.998014290566177e-05 -0.001310026274521143 0.010634754179330108 0.5861998567807766
2850000000.0 0.2534933808341896 0.24102500596397 -0.00021341864888668505 -0.0012142568193100106 -0.00028090734980310526 -0.001240357823321321 0.08240109389753861 0.5850030331946705
2900000000.0 0.27350651966278694 0.22542658070226484 -0.0003420753877456644 -0.001314152913974903 -0.000382859104569479 -0.001288858745741367 0.15246759841402904 0.5737466490661337
2950000000.0 0.2883449753292434 0.2115276758969062 -0.00042777646319314605 -0.0011390739713379918 -0.00042310895057135845 -0.00133740423357365 0.2174899926470356 0.5556928631995757
3000000000.0 0.30519583319801163 0.1911531732832425 -0.0005587222675346705 -0.0012311742195429286 -0.0004820587956980951 -0.001225884499869748 0.2805888038779196 0.5275504987104995
3050000000.0 0.31807909689101277 0.1770771433417376 -0.0006621150414817317 -0.0013087886930516711 -0.0006531392257890464 -0.0012828208757326202 0.33690684772554286 0.4961922600064677
3100000000.0 0.3317402395174912 0.1530509498387194 -0.0007564602631211124 -0.0013096870969115967 -0.0008230491735049671 -0.0013766060242896931 0.3874864260700195 0.4574783195105145
3150000000.0 0.3443220252172459 0.13716652259502735 -0.0010444030143623925 -0.0014321689416024333 -0.001002553975019894 -0.0013017428738609064 0.4330551608621354 0.41724782620974193
3200000000.0 0.35276739683139424 0.11178308116206813 -0.0011184741020853004 -0.0012508660352448 -0.00112128097450888 -0.0014496931638071748 0.47192157493610565 0.3724797256501419
3250000000.0 0.3646982709492691 0.09105104783714064 -0.0013734755553824508 -0.001205529877823147 -0.0013549846932529416 -0.001225655958431725 0.5072811076707354 0.32694292551354726
3300000000.0 0.36898394907699483 0.06803693700163593 -0.0015647763532441559 -0.0011938854883141122 -0.001496385053038727 -0.001073203907158291 0.5368778366524654 0.27875456771336937
3350000000.0 0.376523937882166 0.04348182725146971 -0.0015441844169403576 -0.0011640475508915718 -0.001675942419298467 -0.0009607180102126693 0.5620531594747553 0.22875014231483737
3400000000.0 0.37865716876126915 0.022038964055662844 -0.0018373436836163787 -0.0010889069232553929 -0.0018688309468305757 -0.001036728169749471 0.5842861319784176 0.17953859617501028
3450000000.0 0.38269908106434547 -0.0034301226260434847 -0.0021323334157531274 -0.0010117597666756638 -0.0021270989947487417 -0.0008803032231250264 0.6009902005736183 0.12686344385387002
3500000000.0 0.3838019364703446 -0.026305521835529814 -0.0022406427737051092 -0.0007682165795487914 -0.0022510070608334483 -0.0008229733040666139 0.6159956017243406 0.07473751255283177
3550000000.0 0.3818328836826914 -0.05231464343366894 -0.0024726194775159986 -0.0006067272242312183 -0.0024931904704490115 -0.0005040567525368068 0.626503754378795 0.01940031190023156
3600000000.0 0.3803630967634694 -0.07526587797515574 -0.0027986777362152605 -0.0004008716490255009 -0.002694987021065142 -0.00044845342011611434 0.6331824695287505 -0.036959879519699874
3650000000.0 0.37373852760239246 -0.1014774772820523 -0.002943795793346576 -0.00015342583520497468 -0.0031419745447897685 -0.00011924971529463134 0.6327013367795135 -0.09723692429925229
3700000000.0 0.3703763721298077 -0.12419794751033031 -0.003126309153005683 0.0003679866999603044 -0.003260619661061525 0.000349723036459823 0.6279632757076004 -0.15789668825233857
3750000000.0 0.3597305266081225 -0.14806759048670157 -0.003184731822314825 0.0006480405183575716 -0.003251587487359849 0.000697793046477105 0.6141838594322269 -0.21836054037255223
3800000000.0 0.35254501304079106 -0.1721833863788626 -0.0033618650969686236 0.0010513279929986628 -0.003355647460208148 0.0011082092441311114 0.5940272434355435 -0.27849764438846775
3850000000.0 0.33891753383616857 -0.19263494765087633 -0.003433110119396591 0.0015235071739462893 -0.003404695501920046 0.001435304590129242 0.5677291970848001 -0.33509481412836023
3900000000.0 0.32813523873862377 -0.214729491975932 -0.0034618307961661837 0.0019234515394231442 -0.003472776504862161 0.001943870138510032 0.5341457881452496 -0.3907471318017052
3950000000.0 0.3137406991348727 -0.23462545666942683 -0.0032304895237983493 0.0025933975459459416 -0.0033214887495786193 0.0025608359983829722 0.49623732858315295 -0.4410473931570419
4000000000.0 0.29716681180629717 -0.2549928101534289 -0.0031007706642102607 0.0030221765168817923 -0.0032547784169234656 0.002923695242843112 0.4512502540176937 -0.4865536630327447
4050000000.0 0.2816072916989838 -0.271901883062643 -0.002902237343636096 0.0034708864829989957 -0.0030084123637633704 0.0034586919764699573 0.40209367807412427 -0.5274267537117094
4100000000.0 0.2618491226839971 -0.2902608706013386 -0.0026224660003594195 0.003914454341174047 -0.0026436540939094007 0.0040189744280931874 0.34778854576420376 -0.5624513023887077
4150000000.0 0.24443046975608684 -0.30650632589360016 -0.0022551335666715056 0.00444296063339917 -0.00223312999830461 0.0044429341160973175 0.2916964323982824 -0.5917440051483344
4200000000.0 0.22196516022389115 -0.3203051167621814 -0.0016996892623723358 0.004935367285474471 -0.0017479622450818275 0.004979448894125881 0.23149954261445746 -0.6147731799971211
4250000000.0 0.20289568635906602 -0.33460148516001387 -0.001038229755879833 0.0053030158282998075 -0.0011243747522094746 0.005369381905148074 0.17005990300822751 -0.6317799003641098
4300000000.0 0.17828034105252452 -0.3450099883573381 -0.0005161892583582935 0.005616339298342964 -0.0004953010898148161 0.00570722925531269 0.10699740316671484 -0.6410936383852096
4350000000.0 0.1568732791374542 -0.35666594892177256 0.0002674567047153446 0.005828125033496588 0.0001664295788312266 0.005832514449975426 0.043187018987110457 -0.6449965039343609
4400000000.0 0.13291951547360795 -0.3636407334064434 0.0010223975544046485 0.006012884672010115 0.0009670835700859621 0.005993303060066202 -0.019866659496702365 -0.6409571858562079
4450000000.0 0.10778729094970198 -0.3716851598654355 0.001716478771388346 0.006141277922926809 0.0016924033914819526 0.006001228304818079 -0.08399506670514777 -0.6300243728596351
4500000000.0 0.08540407918409149 -0.374158308099628 0.002389216631155793 0.005980151790152418 0.0024253666426785 0.006009739754349453 -0.14449501420979285 -0.6136874707211732
4550000000.0 0.05871757488118948 -0.3792213216817038 0.0032885944403040234 0.005774240647763724 0.003140382718894118 0.005957429412774563 -0.20377489189884274 -0.5896350914840014
4600000000.0 0.035984870235890226 -0.3808550930815153 0.004062100510412338 0.005497502432020934 0.0040885709061956035 0.005482391694768673 -0.2604617830230165 -0.5589211363324497
4650000000.0 0.009310603099095689 -0.3802385073304966 0.00472786760837661 0.005175068960896857 0.004871283060638414 0.005207955198456419 -0.3137679074821093 -0.5222203423919307
4700000000.0 -0.013582311744918758 -0.3798027620729781 0.005472142302040215 0.004571114541291309 0.005450081207901798 0.0047575386731295456 -0.3618246748595676 -0.4799035313856804
4750000000.0 -0.0393259487289782 -0.3747357724843439 0.0062110715036651325 0.004087602796305115 0.006214370648803396 0.004146799947895956 -0.40496913922255173 -0.43173406921612234
4800000000.0 -0.06277724965664935 -0.37139269559994476 0.006810783121981889 0.0034469804222745544 0.006717119074451136 0.0033988378740898275 -0.4428956703893258 -0.37919380511101347
4850000000.0 -0.0864989313137135 -0.3631556867013089 0.007252560831509382 0.0027287313560072145 0.007272414679666312 0.0026114301220819553 -0.4731325356277868 -0.32197424449818346
4900000000.0 -0.10960793382011431 -0.3560635141161931 0.007657395025177351 0.001774487453473072 0.0076170275652219345 0.0018690255950401112 -0.4968765131523957 -0.2620613556414286
4950000000.0 -0.13165358334505367 -0.34510987933442927 0.008110583524059085 0.0008425327946653704 0.008032727810563058 0.0008947643688931519 -0.5126210235194266 -0.19755583443633393
5000000000.0 -0.15379435888410367 -0.3343954168952375 0.00820469735914595 4.8978816257348474e-05 0.008048216190164154 -6.765992129426556e-05 -0.5215021075120886 -0.1333687627634881
5050000000.0 -0.17302780586361016 -0.32125464653471564 0.00837398982223235 -0.001112773109276492 0.008437520107214484 -0.0009566084539118706 -0.5209160253355234 -0.0683313243481032
5100000000.0 -0.19384378319609535 -0.30668353669688375 0.008459588055897124 -0.0019499385426198328 0.008290194660473317 -0.0019016618087073834 -0.5127012025104516 -0.0037018489990872675
5150000000.0 -0.21095432039930267 -0.29278550210749665 0.008226211738772601 -0.002884419585308941 0.008357235501753787 -0.003007055603975183 -0.49465445131959435 0.059253484403912315
5200000000.0 -0.22873665105835175 -0.27503766142976804 0.0080466275646928 -0.003826199965751986 0.007886836154365985 -0.003825733937534428 -0.46943781114853544 0.1204551650018034
5250000000.0 -0.24186088373277803 -0.2601596817107138 0.007659590819089584 -0.004936695472356341 0.007749250767824012 -0.004879852779511729 -0.43529042645867266 0.17637084863425886
5300000000.0 -0.25859597223593633 -0.23910415678683072 0.007333979798591231 -0.005903461213892078 0.007151699142262488 -0.005909818732809441 -0.39214301276147406 0.22808378944243018
5350000000.0 -0.2721241006138088 -0.22146106061172663 0.0066745024569758084 -0.006865259886374147 0.0066472570849582715 -0.0066657630330292615 -0.34432213664229444 0.2720646010108373
5400000000.0 -0.282952462491784 -0.20085054204655223 0.005959430144087569 -0.007592318346441339 0.0059510467990355545 -0.007724994955599824 -0.2884110631270386 0.30796003046163484
5450000000.0 -0.29379808893491277 -0.18122209864540614 0.0051704432433884685 -0.00829470679263587 0.00516819031553488 -0.008284359559141913 -0.22914064551315855 0.335331148995632
5500000000.0 -0.3015116210457893 -0.15920542167677196 0.004185164451730757 -0.009133372896049659 0.004226447048510717 -0.009143267691684722 -0.1646839705408648 0.3534993921392162
5550000000.0 -0.31022302373093713 -0.13936128622200256 0.0030567212291117774 -0.009847909965277889 0.0032281098028404693 -0.009759570058405572 -0.10000026147378384 0.3605274241275254
5600000000.0 -0.3139303253964208 -0.11768707808357382 0.0020297291958967178 -0.01011121680775364 0.0020428336788460046 -0.010124878221696495 -0.034355736502401105 0.35700844874039095
5650000000.0 -0.32020102362385344 -0.09613426077097863 0.0010384708881187846 -0.010362629156490987 0.0010360040427714976 -0.010373340279024899 0.027953487007414055 0.34454140558661234
5700000000.0 -0.3219098595501361 -0.07481326303403746 -0.00020889122580116705 -0.01076050001721402 -0.0003158980869666634 -0.010699039440800218 0.08888978467760691 0.32060363790377777
5750000000.0 -0.32251931013658824 -0.05228834718088138 -0.0013832217593551669 -0.010762746995161566 -0.0014050720540304679 -0.010770558076645334 0.144511487627869 0.28856147084776457
5800000000.0 -0.32257813629286153 -0.03320065904297472 -0.0027438752618903057 -0.01075137170732564 -0.0026205551269340736 -0.010798438601930188 0.193069091112061 0.24494799689316138
5850000000.0 -0.32063442283382415 -0.011316386459139051 -0.003948952195148571 -0.010558737971139254 -0.003915523417734878 -0.010478526334679468 0.23243217319693332 0.19546284164779032
5900000000.0 -0.3182212391762028 0.007013677418017685 -0.005108728478415493 -0.010089241168600339 -0.005157984747102401 -0.009974925101927913 0.2595519703561612 0.14004232432167657
5950000000.0 -0.3128996276977077 0.028346810920781226 -0.006505664590419349 -0.009586161444477609 -0.006462674519447799 -0.009453821157316671 0.27754498156401347 0.08419597885216218
6000000000.0 -0.3086203610015208 0.047051711229486946 -0.007812226471729562 -0.00876100804104921 -0.007729751778378914 -0.008803691935751081 0.2857881239962257 0.0326646266115597
