! Created with skrf 2.0.0 (http://scikit-rf.org).
# Hz S RI R 50.0 
!freq ReS11 ImS11 ReS21 ImS21 ReS12 ImS12 ReS22 ImS22
100000000.0 -0.8815876304837419 0.12259459067865101 -4.520886678917223e-05 -5.469143201007012e-05 -3.379445509334731e-05 -0.00010162254090198172 0.008328724726094604 -0.01366681371016699
150000000.0 -0.875606613297786 0.1838962208108652 4.888717967216415e-05 4.5419797687228717e-05 2.9637047592027264e-05 -5.077319852357044e-05 0.004848431036235556 -0.018623417307394755
200000000.0 -0.8558512529293124 0.23900892236264787 -8.697202625114084e-05 1.2184853802591047e-05 7.136455842163749e-05 -0.00012172620422828463 0.0016578068671467448 -0.025923170175360152
250000000.0 -0.8411042509357887 0.2970833645102163 3.720078349979837e-06 9.478489413024453e-06 -3.058219104260449e-05 2.3016106766102474e-05 -0.0029201916006409276 -0.030034258355208735
300000000.0 -0.8159337470519974 0.34961264296051137 5.0510587233500985e-05 1.4795128124569653e-05 -4.4150195353987994e-05 -5.1830554443889336e-05 -0.00869775698422627 -0.03625372820411608
350000000.0 -0.7885941150525076 0.40536962815287514 -2.5280365673973545e-05 -2.3021486388235534e-07 4.665032897227962e-05 -1.6522619589296842e-05 -0.013423734830026063 -0.03912790461108461
400000000.0 -0.7622263024336315 0.4538636553218796 -3.58938238674281e-05 6.533069151025525e-05 -1.4022119698019983e-05 4.6174857876110904e-05 -0.021748629288436645 -0.04331987434123006
450000000.0 -0.7259549282519819 0.5058247911073078 -9.401227168972339e-05 -2.664393078912665e-05 -2.0750030346611776e-05 -5.525590292036205e-05 -0.027743333407313754 -0.04569316026192776
500000000.0 -0.6948229855505493 0.5514523289610149 -4.3335532382270787e-05 -4.213320887456132e-05 2.4653470284283724e-05 -3.241320190683804e-05 -0.0372092407262107 -0.0471575732000297
550000000.0 -0.648684821767713 0.5949816652395832 -7.228279675366913e-05 -3.078225524906395e-05 -4.2047674610892036e-05 3.4706699844148876e-05 -0.043962036956324176 -0.04897506169828999
600000000.0 -0.6139303750688344 0.6369947171380351 5.32721860760347e-05 2.3680940619572554e-05 7.258402339722411e-06 -4.3193286690545955e-05 -0.05385116128843323 -0.047252543216252545
650000000.0 -0.5627696151339808 0.6729387754691015 5.871754012301785e-05 7.259475979400903e-05 -4.726476625640635e-05 0.00011844544946366096 -0.062380909320499514 -0.048013952924032384
700000000.0 -0.5222414209473829 0.7109100695708798 8.118550998684325e-05 4.512149393694328e-05 -9.840746877141007e-06 -3.372686498555424e-05 -0.07154079569078442 -0.04356639064626472
750000000.0 -0.46943174168943247 0.7390023728613342 -8.600992548625779e-05 -6.388394572670906e-06 -3.3492378218359555e-05 3.843503327256136e-05 -0.08124260195905268 -0.041784162630465985
800000000.0 -0.4232991452202044 0.7696338928933649 0.00016790217895120804 -3.3669102828840577e-06 -3.267887533662327e-05 -4.774263846014052e-05 -0.08913866340958171 -0.03554459184022287
850000000.0 -0.3692570007978183 0.7923433513102616 -1.7203900158502365e-05 -2.075373947488144e-05 3.81273116707065e-05 -3.506383375823484e-05 -0.09990249590249911 -0.030577765221567625
900000000.0 -0.31740777808453274 0.8159042775080082 5.4735388989732085e-05 1.1098585317747711e-05 -4.70487444372375e-05 -0.00011865773970537314 -0.10635356110977601 -0.023494251882818198
950000000.0 -0.26369186706997616 0.8330661010483866 2.764798181465814e-05 -5.5747348590219505e-06 -3.146436099490329e-05 8.702286770594198e-06 -0.11602533562824167 -0.015392187196350722
1000000000.0 -0.2068767398168349 0.8459770979754379 0.00010083726828775411 -0.00010273947844065453 -0.00011309353021555428 4.034447264081844e-05 -0.12208220820150519 -0.007296551207853415
1050000000.0 -0.1544824131129979 0.8588408458784046 -6.495406269632604e-05 -4.969957260108144e-05 4.659940273356012e-05 -4.452994788996813e-05 -0.1298008429145998 0.004099392515326762
1100000000.0 -0.09449727907212108 0.8641931897264098 -0.00016705597068931971 -0.00014215639234137334 -6.841395410309427e-05 7.237420742879644e-05 -0.13512531034957145 0.013684294347764461
1150000000.0 -0.043035543949166116 0.8701856363595257 2.824766991374069e-05 -1.6469006576087393e-05 -5.4123676557418714e-05 1.5281132935439502e-06 -0.1401717126634356 0.02714735333728513
1200000000.0 0.017104965017553396 0.8684213866309485 7.998112106385467e-05 -1.0573995127372582e-05 5.320427295504449e-06 -6.988471052061565e-05 -0.14476116640785522 0.03816567432997197
1250000000.0 0.06976104085138592 0.8656800819651401 3.627066408217591e-05 2.4531463040080216e-05 -1.6481022669914608e-05 -1.652470856248672e-05 -0.1463691916144635 0.05292878053825156
1300000000.0 0.12881254495521302 0.8555396372959027 9.31644652778204e-05 -6.035973429316973e-05 -1.0542163818482356e-05 3.73402687466422e-05 -0.14991908008493562 0.06582667956348726
1350000000.0 0.18027972369458212 0.8466206230122594 8.77413650028244e-05 1.9036790519965813e-06 2.249058856836482e-05 1.565655563307902e-05 -0.1486048306905233 0.08071984000756455
1400000000.0 0.23676246745890264 0.8310129635383 -4.542611378904427e-05 4.051012304771376e-05 1.0070086016008915e-05 8.694362652445819e-05 -0.14965613284126525 0.09550689900050197
1450000000.0 0.2873925215983904 0.811504818938585 8.473616895285905e-05 -4.755862886779392e-05 3.635819804794032e-05 0.00013308664016561792 -0.1461646802426104 0.10928604978297253
1500000000.0 0.34027854249397393 0.7938982838765594 -3.946761996908094e-05 1.834887486916898e-05 9.338649838143426e-05 2.3740814441972074e-05 -0.14378713761727455 0.12595750703901207
1550000000.0 0.38773989710667994 0.7671679959967672 -6.530643928900768e-05 6.490745692607416e-06 3.662029970179547e-05 1.2758423586359099e-05 -0.1382659540987517 0.13927936127764215
1600000000.0 0.4376630437709924 0.7431504287378959 -7.555727613902524e-06 -0.00010813580590555473 9.318818348247805e-05 4.072188437376543e-05 -0.13188208678347021 0.15592215689852854
1650000000.0 0.4823156816645451 0.7097194832457693 6.949780593414127e-05 5.1290585345028956e-05 -4.936908574008857e-05 -2.763079088394078e-05 -0.12523361733646304 0.16883188806594834
1700000000.0 0.5279590995173578 0.6788530727534898 8.974886161569865e-05 -4.574484645749214e-05 -2.6526729554925046e-06 -3.067195054216223e-05 -0.11511944338358171 0.18445290003803114
1750000000.0 0.5685278269352471 0.6405764337747231 7.748980305041705e-05 -5.043223546006321e-05 -3.691744644287321e-05 1.531232062720367e-05 -0.10657502989744921 0.19722387915072478
1800000000.0 0.6083231286728088 0.6027635193724591 2.574177688165156e-05 -1.500961595638806e-05 7.515667278073753e-05 -4.583502855162178e-06 -0.09325635907140171 0.21052326069192853
1850000000.0 0.6447697910340139 0.5622974407386455 7.37722508959294e-05 -4.6615189428748146e-05 2.2784726023444957e-05 -3.829468123814656e-05 -0.0824121384626294 0.22338403806871973
1900000000.0 0.6770646711479795 0.5171159825139389 2.8519482370423653e-05 3.984007291390441e-05 -1.824143164499788e-05 -8.780666203035139e-05 -0.06659720775504413 0.23391817761812364
1950000000.0 0.7100784294693299 0.4729962549585004 -7.471765379553247e-05 2.1010668485701944e-05 9.992185912956578e-05 -4.678062496150362e-05 -0.052432230236007474 0.24612834601665537
2000000000.0 0.7345252611652475 0.42632709890027176 6.0183296168548565e-05 2.6101952525203345e-05 8.390610540406321e-05 5.070760049159137e-05 -0.03577273188284997 0.2536437058178547
2050000000.0 0.7644000561955632 0.3807426966224789 5.007027061699014e-05 4.194673517534154e-05 -1.8906362993155558e-05 1.8352157832314607e-05 -0.01769344603140974 0.2639280592634384
2100000000.0 0.7796537208241098 0.32779588824027756 -5.877740311689569e-05 5.616900339793217e-05 6.025954579661539e-05 0.00012003534165949713 -0.0008998437384940881 0.26904636613653227
2150000000.0 0.8061245895294247 0.28227008534551196 1.8836798723462133e-05 -7.640663225769017e-05 0.00010098644618943583 -1.734377801599435e-05 0.019128117644708516 0.2761536361338705
2200000000.0 0.8143590700146065 0.22670072076658626 -3.9138803629123666e-05 -4.8869395185881614e-05 1.9358104123926552e-05 -0.00013389638017908536 0.03701063816840932 0.2797954236843409
2250000000.0 0.8310247781505483 0.17293036101811293 -3.508524109682652e-05 -6.198559436403065e-05 -1.5372110412135765e-05 -5.890506123662449e-05 0.05865370010978927 0.2824131739495244
2300000000.0 0.8352899894349164 0.12225323397133583 1.6639468102725203e-05 -8.010102807665922e-06 -1.4927237912738937e-06 -0.00010655928212984804 0.0780001981191295 0.2839757179853919
2350000000.0 0.8444516359160505 0.06582487074359906 -1.041630033677414e-06 2.045987830144639e-05 4.545329109323862e-05 -0.00010241510449859324 0.10009327218058091 0.2825204253023093
2400000000.0 0.8428710562017914 0.013674674832116445 -2.058580654999068e-05 4.264564642538541e-05 3.332668568249665e-05 -5.842025248626507e-05 0.11950701192898408 0.28140282971157066
2450000000.0 0.8389111471884884 -0.04385378330720446 -1.3261439997768577e-05 -1.727492637050336e-06 9.195440831905975e-05 -4.814280571259607e-06 0.14138936447360861 0.27616768872030695
2500000000.0 0.8370054708816147 -0.09301418776688546 0.00012067496220529331 -7.402279350204383e-05 -9.799568398165965e-05 -1.952497031854771e-05 0.16211591388110855 0.272003270118882
2550000000.0 0.8220257560281689 -0.15069749307676644 -2.7122825495020768e-05 0.00012760994243107547 1.673969003639445e-05 -0.00012882860486427915 0.18182872771985895 0.26275351101600186
2600000000.0 0.8169550051865091 -0.19995518551360697 8.247576817448081e-05 -3.734234514352573e-05 7.36108536713111e-05 -2.591007759440696e-05 0.20285088908362406 0.25505484435346654
2650000000.0 0.7920090542269214 -0.2532608275117479 7.180721241955338e-05 3.784757989288645e-05 0.0001245245424010379 3.282764637618318e-05 0.22091020590701207 0.24370077162315182
2700000000.0 0.7804328962583629 -0.30562218864673896 3.321591171794601e-05 -7.935439822194985e-05 3.681565569140786e-05 -1.299761793932339e-07 0.24121466214707313 0.2314967891358527
2750000000.0 0.7521521800610259 -0.3514913566186083 7.791704961956496e-05 -0.00012540246335776502 -9.47257780333985e-05 -0.00011639589817935919 0.25781178311642083 0.21848551415781195
2800000000.0 0.7328314404364163 -0.40308066383441327 3.0425059105054236e-05 -5.601758247353156e-05 -1.6284161993247597e-05 -5.2726007191073444e-05 0.27545117031221017 0.20226352531897826
2850000000.0 0.698303697801984 -0.44430846920057965 -2.669058965872511e-05 4.318287553431612e-05 -9.711493520169247e-05 -4.365134517238252e-05 0.29006511544498187 0.18640979477066094
2900000000.0 0.6688186224891769 -0.4936694482880812 -2.6398131289884397e-05 -4.100164814527743e-05 5.1059860515527534e-05 -0.0001034322140036397 0.30509375389736154 0.16750018860116428
2950000000.0 0.632563628383599 -0.5303377190023444 -0.00010861495671611462 -2.5278059179435384e-05 -0.00011366898678175492 3.09150252579328e-05 0.3168046819066211 0.14956646175429986
3000000000.0 0.5911089543996232 -0.5741355077429018 2.973907084160155e-05 4.1757926084914944e-06 8.372508580599564e-05 5.8333103782958205e-05 0.32813406934644174 0.12756806753946473
3050000000.0 0.557891970771149 -0.6042955537143742 6.16692799666776e-05 -8.90740487756652e-05 3.7205779434710114e-05 -9.140846502313121e-05 0.33782800477690034 0.10839473964898605
3100000000.0 0.5084315032633917 -0.6440514056559438 3.4124953912034534e-05 -0.0001452243789380491 -5.475121929708425e-05 -8.448083189222998e-05 0.34384394902313176 0.08598848331933064
3150000000.0 0.4733992838593833 -0.6721338042496154 9.438431115314653e-05 2.172554714106317e-05 -2.2050960898776855e-05 -5.803776670853057e-05 0.35053423036693265 0.06564383695028356
3200000000.0 0.41558490172042106 -0.7008297974526412 -1.2692131760890108e-05 5.132416287610481e-05 -3.415344394478554e-05 0.00013812939032144988 0.3526274862034246 0.04410318058920388
3250000000.0 0.37560989406765527 -0.7295960607009675 -2.751180339699896e-05 -0.0001060972300345769 6.071055651034716e-06 -3.400280480431107e-05 0.3563737324404788 0.023586204084717868
3300000000.0 0.31758934592326554 -0.7463975255293605 -2.5907522603169215e-06 -7.947851087161339e-05 -3.4400191460222306e-05 5.9100998189876235e-05 0.3563872201887617 0.0037851219171175874
3350000000.0 0.27048468851286056 -0.7710203656822409 -3.0762324594586054e-05 5.3348140143762946e-05 4.257570887192222e-05 -4.969314223250808e-06 0.35640568205501916 -0.017527874476646763
3400000000.0 0.2152088162975817 -0.7789196709462475 -5.221913173156223e-05 -6.011523653708109e-05 -8.469346677128041e-06 6.496308788029081e-05 0.35564511643903113 -0.03526202642521916
3450000000.0 0.1648894108598386 -0.7975499765428198 -8.498836242413983e-05 0.0001403759337834352 -0.00011062483566030044 2.636841668305917e-05 0.3532686514032406 -0.055204789608891296
3500000000.0 0.10803634280618184 -0.7984533213385885 7.169073342021508e-06 0.00010580492314908412 -2.5797749302012514e-05 -9.61519869434766e-07 0.3520151101227951 -0.07233435269526887
3550000000.0 0.05386310652433255 -0.8083982203343193 -1.576372639479147e-05 -8.784251286869999e-06 -6.050147416470264e-05 0.00010005605523730069 0.34932554670123955 -0.0911572079302472
3600000000.0 -0.0012417651950284978 -0.8030522255851584 -2.563882764264748e-05 -3.9681899627836014e-05 -0.00013818787182804277 -0.00017423502148988535 0.34798043875036694 -0.10899916040588052
3650000000.0 -0.060348575296454925 -0.7998915235810786 -0.00010707989205838949 6.330229703612596e-05 -7.728803887367886e-05 4.7068258740306514e-05 0.34377797281549805 -0.12908798483574924
3700000000.0 -0.10941952356771419 -0.7927138577233525 2.1204493176497364e-05 3.129619633926266e-05 -3.064448658974508e-05 -0.00010651011004763776 0.3406547978362927 -0.14927505471860378
3750000000.0 -0.16971351998888792 -0.778402328954691 -2.554511156430788e-05 0.00016279570777816548 -5.961574944440301e-05 0.00011603288583735512 0.33398129692095513 -0.16916658869375015
3800000000.0 -0.21887375301241557 -0.7677031192245499 -5.5305842727785274e-05 0.00011664657042068074 -9.453163262340221e-05 0.00011318583912792038 0.32720464090231627 -0.19101153593426565
3850000000.0 -0.27502972637364215 -0.7414710604157827 2.9100366533896563e-05 0.00011853173433246367 7.771331773950218e-05 5.394553679591497e-05 0.3184009377038108 -0.21037545927060713
3900000000.0 -0.3196111199229233 -0.7272182692725406 4.5178832861542685e-05 0.00014419262208420375 4.301881758409408e-05 0.00013473227310677115 0.3071456281083947 -0.2325756588908371
3950000000.0 -0.3727174253557708 -0.6925809105033989 -6.230052552924582e-05 8.013767746978826e-05 -1.0606549395327957e-05 -5.800835000794952e-05 0.2961858132017052 -0.2517414695128816
4000000000.0 -0.41949140074557084 -0.6691708787855601 0.00015179860239763506 9.145637815061225e-05 -1.5556381768382926e-05 0.0001182961980305105 0.2810912966192141 -0.27122472892440763
4050000000.0 -0.4628129902820341 -0.631052403816564 0.00015001277503880854 3.0853264791831444e-05 3.3825453298385626e-05 0.00015443367962140737 0.2661033561894335 -0.2894319144682328
4100000000.0 -0.5082339717693349 -0.5981737378225452 9.535160472491431e-05 6.028418877238819e-05 0.00018317124947095148 5.86664340040747e-05 0.24769942100787706 -0.3066106423694983
4150000000.0 -0.5451850115601126 -0.5566250467977322 0.0002072638340915306 9.1531667007101e-05 0.00027310756624982467 5.500978518454854e-06 0.23044060833998786 -0.3228000188139647
4200000000.0 -0.5844012085970163 -0.5155602820749094 0.00028732260841569116 3.0600289037580884e-06 0.0002486778950408172 -1.8823551639109737e-05 0.20949220198983065 -0.337142563912475
4250000000.0 -0.6152275878160788 -0.471823210425487 0.00031318792737725906 -4.401934873050469e-05 0.00017974116808327915 -0.00011451099027684306 0.1889840202090323 -0.3514867202162077
4300000000.0 -0.6486694281594837 -0.4222786355143581 0.00027198105403217145 -0.0001173737503587064 0.0003554284550448116 -0.00011770148091711284 0.1670482589728836 -0.3620877218938177
4350000000.0 -0.6726693164125042 -0.377882446248746 0.00026367769121514136 -0.00010097658462119086 0.0003140349019641817 -0.00019055476884787133 0.14395629027770665 -0.3734908034780078
4400000000.0 -0.6977485701018684 -0.32006486263713185 0.0002846510478610765 -0.00022070906921658058 0.0003349699662203391 -0.00032633473802469226 0.12134092284217496 -0.38115109670786596
4450000000.0 -0.717834655815222 -0.274080700642987 0.0002512965909013813 -0.00034556616433117324 0.0002586951493268182 -0.0003129812769436404 0.09558426740719532 -0.38854602246143904
4500000000.0 -0.7321454108062425 -0.21752353772857133 0.00031713239297223085 -0.0004265870206435489 0.0002725685044750011 -0.0004263987165705801 0.07276254560331114 -0.3938260852921358
4550000000.0 -0.7461355202981127 -0.16552145996722073 0.00015447898888780887 -0.0003926040452631291 0.00020170936794961503 -0.0003873590170510236 0.046694698561616156 -0.3968209989679623
4600000000.0 -0.7508933078409581 -0.10754904659456832 9.357339768864838e-06 -0.0006771951281588269 9.155625919263094e-05 -0.0006501091764120351 0.022386325923889772 -0.39867217355974455
4650000000.0 -0.7575683293322651 -0.05459583727644814 -6.637401575143984e-05 -0.0005646858194989531 2.2489922248661765e-05 -0.0006806226037167 -0.0033680090670982037 -0.3977729170324582
4700000000.0 -0.7540743686175391 0.002526100537811641 -0.00012292629029966347 -0.0006292305114851612 -2.66475799560188e-05 -0.0007274815273292333 -0.027834196634961967 -0.39672248711828234
4750000000.0 -0.7521270535936563 0.057980335446733026 -0.00020817701598818683 -0.000747056280989643 -0.0002589144984337301 -0.0006406463625216407 -0.05227448629814204 -0.39189528176647437
4800000000.0 -0.7416237853045949 0.11196526386037864 -0.0002885934049429639 -0.0006464932355174851 -0.00044135195909224435 -0.0006180494266681862 -0.07661285087017355 -0.3873770574773159
4850000000.0 -0.730483381616328 0.16710324803823734 -0.00044366712479294905 -0.0006139926710389585 -0.00040637024093027906 -0.0007600179238794834 -0.09978878635170763 -0.37936168753147986
4900000000.0 -0.7131791330049624 0.21810916485149487 -0.0005856951266764297 -0.0007431891739580976 -0.0006318838999109117 -0.0005480236556847193 -0.122687060593101 -0.37157835792866556
4950000000.0 -0.6926154432638754 0.2733690613265124 -0.0007414789360478779 -0.0005848630054602217 -0.0007944952212669865 -0.00047620352723544635 -0.14461596910176278 -0.3609072869003137
5000000000.0 -0.6697319929875734 0.3205950673754 -0.0008433805642675261 -0.0002778709978989064 -0.0008134999975597187 -0.00025342093803403903 -0.1669590243827373 -0.34925350007049355
5050000000.0 -0.6394281084761938 0.37103623442908734 -0.0009264576035052496 -0.00029661156119441425 -0.0008487007830464526 -0.00023112094551743905 -0.1862689364308981 -0.3374114625404517
5100000000.0 -0.6106389532261498 0.4141016369569824 -0.0008684610345002407 -0.00013615599854146737 -0.000961096855376076 -0.00014982172383616273 -0.20605155613081366 -0.3227992054346541
5150000000.0 -0.5735762006685253 0.458985202481871 -0.0010480572090093045 3.270776647902004e-05 -0.0010757700622322857 3.4266706613756155e-05 -0.22384065374271142 -0.3083300468259709
5200000000.0 -0.5385464751163487 0.49737062154269196 -0.0009673581028981296 8.446517068913582e-05 -0.0009818464149960874 8.231830292300305e-05 -0.2412415101900262 -0.29121680630985347
5250000000.0 -0.49640846221955803 0.5325635904949666 -0.0009546799691789955 0.0003550803824850546 -0.0009407625539442897 0.0001430365573782447 -0.2577335317878573 -0.2750551858264906
5300000000.0 -0.4536390224163302 0.5697049930375306 -0.0011063054727189269 0.00037419260426987353 -0.0008868793624781173 0.0004595948736368804 -0.27104493004887215 -0.25642418291026753
5350000000.0 -0.4084743504441487 0.5997434582676815 -0.0009037972610398798 0.0004890516844954387 -0.0009243634478199306 0.000453244361079078 -0.2853948522729608 -0.23747660710587004
5400000000.0 -0.36053537310040445 0.6272885478590213 -0.0009536860652894285 0.0005702342532537295 -0.0009110584175941815 0.0006360334945552745 -0.2958531488483314 -0.21860798133546552
5450000000.0 -0.3114481975407888 0.6496262382371305 -0.0007497194881022039 0.0008117073690432317 -0.0007506251244305393 0.0007694477028593866 -0.306828572498422 -0.19852976670708197
5500000000.0 -0.26067172804695526 0.6695565850622093 -0.0006940274090238904 0.0009003610722126136 -0.0006157735435194931 0.0009285858453484327 -0.3149925964490444 -0.17775026461995264
5550000000.0 -0.21026261615039013 0.6836213004104738 -0.0006861795787953378 0.0008655148032693322 -0.0005910904127360769 0.0008993525455202377 -0.3231026489661857 -0.1569387140490488
5600000000.0 -0.15553794003055957 0.6961330815037611 -0.0003984963771404493 0.001128691079525809 -0.0005495345954141423 0.0011332765266413149 -0.3284767988946608 -0.13627724857374734
5650000000.0 -0.1043077107642873 0.7024194389811446 -0.0003944606855635873 0.0009665762934990491 -0.00046804673147729037 0.0010559862621560266 -0.33368044339214603 -0.1141198324479646
5700000000.0 -0.04507848154260847 0.7064772420633808 -0.0001777692838124713 0.0011874099959847514 -0.00021729748977300617 0.0012190628072352918 -0.3362548754544734 -0.09406269617834763
5750000000.0 0.006189359348463267 0.7052806583077504 -0.00010053905701022432 0.0012109412592297758 -0.00023780430742453178 0.0013174419646240455 -0.33781933241784995 -0.07212736459186554
5800000000.0 0.05930908006053365 0.6984991927894916 6.653062530122844e-05 0.0012035785935273545 -0.00018255469310179907 0.0013775303816309951 -0.3386566697295285 -0.05222333187538323
5850000000.0 0.11111572868327746 0.6887729021259239 5.707053691314387e-05 0.0013505732285388622 0.00022651981834032717 0.0012710712751970083 -0.33693662604216573 -0.03104690651551306
5900000000.0 0.16216791004109182 0.6735284424393086 0.0002348851427791654 0.0011980164360225049 0.00025546780194199924 0.001184391081319079 -0.33566938566443866 -0.011342759752298526
5950000000.0 0.21130789595227803 0.6563847703156798 0.00046401830211278944 0.0011450676441385871 0.0005842393076086565 0.001164368074501964 -0.3307796449043367 0.008279444371013954
6000000000.0 0.2595335000331717 0.634764976699463 0.000731554451948844 0.001135975785540107 0.0005900095096949401 0.0011648791621238145 -0.326130932333792 0.02847270427686223
