! Created with skrf 2.0.0 (http://scikit-rf.org).
# Hz S RI R 50.0 
!freq ReS11 ImS11 ReS21 ImS21 ReS12 ImS12 ReS22 ImS22
100000000.0 0.00866705336900319 -0.01628120963239043 -8.179150200768994e-05 0.00036693851972551445 7.021913393109821e-05 0.0001712107536806109 -0.2589990485881188 0.07857730081488816
150000000.0 0.004852491677765635 -0.021459912693624426 -1.6569418952363856e-05 0.0003834651535455943 9.239905273478034e-05 0.00039144119849892506 -0.24390188968804713 0.11574893155317334
200000000.0 0.0016172569342384755 -0.03084992348411362 0.00012419347179626344 0.000496456068920264 0.0001477751040100574 0.0004893960802212274 -0.22264973853279135 0.14606520984204605
250000000.0 -0.004111328063602935 -0.035134864701528254 0.00021410926747654773 0.0006854344495649537 0.00021972630439135555 0.0006602772416075014 -0.19705503384146714 0.17588973206248196
300000000.0 -0.009744860241984019 -0.043611685458243774 0.00032288979416676954 0.0008511676420151043 0.00030575272540308765 0.0007867061636028229 -0.16849042425238897 0.19776113536866508
350000000.0 -0.015199054789796303 -0.046207083554051294 0.00044744945354374276 0.0008614235644621743 0.0003932825458270696 0.0007741756268561736 -0.13474327987563592 0.21784516148814384
400000000.0 -0.024619238239104 -0.05320819295808966 0.0005962465318721156 0.0009780466625136156 0.0006347591125273832 0.0010336065478640142 -0.10191716461539854 0.2302744358122777
450000000.0 -0.030371497187230964 -0.054638176629998446 0.0008678625685449962 0.0010479383689544705 0.0007759863763753054 0.001114955300333625 -0.06424373425029627 0.23824458528929138
500000000.0 -0.041712329544796894 -0.05733468006703901 0.0010900054913147146 0.0011489619650812306 0.0010352892035526424 0.0010793269236512642 -0.029631303110656648 0.24037731142588903
550000000.0 -0.04842319483071513 -0.059903482938113845 0.0011979079924441332 0.0010886676301666211 0.0011549577139979446 0.0010040257950917205 0.007815646551716068 0.2349453579910802
600000000.0 -0.06021776801794785 -0.059015987579051195 0.0014338620469106975 0.0009891356601575202 0.0015132869910462333 0.0010892444091039593 0.04119569245973324 0.22671875577215772
650000000.0 -0.06860617220378014 -0.060431569817466564 0.0018590904556862221 0.0010327933574109012 0.001767873442465488 0.0011891209554447987 0.07352736865304033 0.20933078387778264
700000000.0 -0.07950326249907066 -0.056001441920253144 0.0020511277698697186 0.001037296427263884 0.001933169507990613 0.0010727774029040261 0.10246717573001575 0.1909672844642304
750000000.0 -0.0902016537379891 -0.05589580752391154 0.00231857329891654 0.000901585951053478 0.0022523564942222465 0.000889107536835912 0.1265709269435314 0.16427864234233375
800000000.0 -0.09899213174301452 -0.04901554830463353 0.0026087893608640156 0.0006685921129184004 0.002591509425096634 0.0007463037816760858 0.1478221063143088 0.13739475031088802
850000000.0 -0.1111446774515319 -0.04627380451365327 0.0028547625813798725 0.000410712580933952 0.002922261339040622 0.0004878534909390432 0.16031073387981964 0.10500751465264152
900000000.0 -0.11829515475237794 -0.03771355734788599 0.0031851578828479454 0.0001872189858114158 0.003131674711463696 0.00020340220400237293 0.17100376859793892 0.07224059952118292
950000000.0 -0.13092045588539328 -0.030570975912490517 0.0033640489007337356 -0.00010881359279656775 0.003416966777610062 -0.00015107052657675746 0.17183817536520588 0.03848513204764032
1000000000.0 -0.1363888177114791 -0.022386324695579884 0.0035529940403734 -0.00042469597461161906 0.0035406044840687405 -0.0004885020008349244 0.16994940166056205 0.0037009174399767397
1050000000.0 -0.1472430698588581 -0.010564167713599729 0.0036374526375407934 -0.0008963309097091965 0.0036752567934720676 -0.0009324633761417084 0.15982697733368623 -0.02725646162852278
1100000000.0 -0.1525975714784341 -0.0019102257699579336 0.0038249157806343314 -0.0014199313716929704 0.0036812448447049234 -0.0014441765439320857 0.14552964785604083 -0.05939663483102128
1150000000.0 -0.1608519639728729 0.012563228594692423 0.003859469030382102 -0.0018672938125915337 0.0037951338753161442 -0.001959091730022217 0.1256335052618052 -0.0854471564268493
1200000000.0 -0.16533632817331792 0.022277329949161408 0.0038182730109607697 -0.0023101324856521746 0.0038070214826509963 -0.0024688712546816695 0.09971128349111007 -0.11122192464209128
1250000000.0 -0.16900404671640643 0.03883571493783283 0.003761297418429849 -0.0029085810297118887 0.0037296729026661127 -0.0029208481289764586 0.07166456048273237 -0.1290252499483814
1300000000.0 -0.1745469209449288 0.050603448134560775 0.003658114065369107 -0.003480497152913444 0.0035909401574240433 -0.003463390473266861 0.03661526857710809 -0.14419972621658086
1350000000.0 -0.1734083035995321 0.06712912207037215 0.0033251812075068684 -0.00398515059001698 0.003335470933078446 -0.003954732418695685 0.0026031980420411706 -0.1514116430809503
1400000000.0 -0.17772994987459 0.08200163200209971 0.003101770908919845 -0.004590599295151872 0.0031937993166310024 -0.004498257368874166 -0.036930101256877075 -0.15240012735498537
1450000000.0 -0.17396009993861233 0.09587441707713111 0.002904120950365439 -0.004948155323892363 0.002718212040814856 -0.004956330000429622 -0.07323004287888028 -0.14752284530025964
1500000000.0 -0.17518567663412746 0.1140407987754022 0.002357418372041586 -0.005515492972222081 0.002378061612954336 -0.005609539498437546 -0.11117371358752545 -0.13291752252451466
1550000000.0 -0.1696057850654461 0.12727833573926198 0.0017341325956861536 -0.006041750816396175 0.0017394400155161854 -0.0060781883909099155 -0.14481336068924813 -0.11506206495503726
1600000000.0 -0.1662796898767363 0.14676141144982302 0.0012690760236644609 -0.00642839849444544 0.0010945073970910794 -0.0064838114446556655 -0.1758799673044705 -0.08696742002283517
1650000000.0 -0.1599288762269463 0.15878481361912616 0.0004263552381401837 -0.0067882902835406655 0.0004044954980995017 -0.006778372582529636 -0.20327052776725774 -0.0572854110646689
1700000000.0 -0.15146964678920366 0.17765776548721166 -0.00022717166780947325 -0.00698526149431912 -0.00022515567104918358 -0.007015600424187938 -0.22311392841795336 -0.019248370946459495
1750000000.0 -0.14472048159456632 0.18980428391014062 -0.0010204508584032179 -0.007323548953213388 -0.0009973082130138265 -0.00722650087556932 -0.23987289367711084 0.02002474846291761
1800000000.0 -0.13100084245712212 0.2063103560314107 -0.001840514983899269 -0.0073777743956156775 -0.00172410396441129 -0.007393651208680379 -0.24583210607990888 0.06328987614328263
1850000000.0 -0.12359161268921616 0.21983046069415343 -0.002760694328062165 -0.007434840727618009 -0.0026740387563890062 -0.00739704325040382 -0.24897119907978463 0.10793152497854451
1900000000.0 -0.10700541815159322 0.23221744597524707 -0.003637482112639466 -0.007281247169680193 -0.0037194692380031545 -0.007320523707011331 -0.24071714005810702 0.15175947376473256
1950000000.0 -0.09515423308067496 0.24797154445595943 -0.0044587217321480545 -0.007062147167670209 -0.004493860956954106 -0.007014226557393144 -0.22829200603632205 0.19705161785971037
2000000000.0 -0.07845513788001304 0.2556610072615651 -0.005403906483498559 -0.006751957463117278 -0.005287495533650555 -0.006778223610596808 -0.20722515817024256 0.23641645569360242
2050000000.0 -0.06396418116999263 0.2695494223132868 -0.006229793000790512 -0.006399521293159419 -0.00621560806485084 -0.006312873773731388 -0.17970873860181819 0.27689387629009576
2100000000.0 -0.04712897319079563 0.27560295810380403 -0.007050194798781245 -0.005752971026534996 -0.006975780838817471 -0.005790548010038949 -0.14823719742646915 0.30833544445528116
2150000000.0 -0.0290773837131094 0.2872283378299318 -0.0077233034997314515 -0.005198661051668414 -0.007733265890865387 -0.005109235640708157 -0.10959212090283747 0.33892418045123834
2200000000.0 -0.010663245345355803 0.2907603091668999 -0.008489382692772576 -0.004485251276117147 -0.008482655693961064 -0.004308280704177064 -0.06923485877632364 0.3617947712216849
2250000000.0 0.011783633782653452 0.2975893892682408 -0.009206158561638169 -0.0035366005457974706 -0.00924036685249876 -0.00356440635389828 -0.02260917095389998 0.3784113332048938
2300000000.0 0.028354742496470277 0.3008213969187208 -0.009760093234574335 -0.0025863366820261945 -0.009705977188022932 -0.002597906616733181 0.02254878486119559 0.3890034047508443
2350000000.0 0.052602528475298664 0.3035736490253858 -0.010240882745960972 -0.0015503492570841867 -0.010096308547630379 -0.0015662944821843155 0.0714040460660627 0.39171834594202104
2400000000.0 0.07041794202623754 0.30556031031879605 -0.010435573325230648 -0.0006725465012088006 -0.01050265661574407 -0.0006645729295710961 0.11799538643473843 0.39052912001059104
2450000000.0 0.09394432528125997 0.3020312740682558 -0.010758584995071858 0.0005160064249392532 -0.010781920352105543 0.000568377292748379 0.16609277426735009 0.37944662299352727
2500000000.0 0.11305360519586156 0.3033325425426258 -0.010839684115435738 0.0016901959849656765 -0.010859626322679772 0.0017098691687912775 0.21110717715269756 0.36474047729714587
2550000000.0 0.1354090180098113 0.2948770109599952 -0.010741795740315772 0.0027235597968484873 -0.010607530832668934 0.0026638056430033363 0.2524922794056013 0.3428503050176193
2600000000.0 0.15673471515627166 0.29406825024314587 -0.010695743707412221 0.003801921331575666 -0.010681588510486485 0.0038323324492166824 0.2939759714856637 0.3176202604570182
2650000000.0 0.1763462919472752 0.2832370981766463 -0.010770509778287286 0.0050841559785925515 -0.010620048859657224 0.005043624097862032 0.3284476833253885 0.2848829334208696
2700000000.0 0.19936401794155664 0.2761513210485419 -0.010328718544110164 0.0062399596363100825 -0.010288712847820389 0.006315834973105235 0.3617741938655886 0.24817753710328486
2750000000.0 0.21618006897120115 0.2650880230835505 -0.009984406977691667 0.007576540163126922 -0.009931240735948157 0.0076227161184430296 0.3855513963003808 0.20867068441773853
2800000000.0 0.2378681418110351 0.2540609479031317 -0.008992589506243983 0.008903851664967344 -0.00901226532197068 0.009030876103852415 0.4051383945428768 0.1652868979840844
2850000000.0 0.25337016403061907 0.241092218255969 -0.0076930343410776215 0.00981887411287426 -0.007732808892911528 0.009737657925797368 0.41676310305629777 0.12551371608083797
2900000000.0 0.27345261068765603 0.22540841655200977 -0.006828071462051468 0.010453388342013875 -0.006816872085714945 0.010282676621126467 0.4290906791482723 0.08223882322647812
2950000000.0 0.28804706315844647 0.2114588628283728 -0.006208358768008851 0.011077897141752254 -0.0062489062324570955 0.0110611699561439 0.4343456796158725 0.038164796730349386
3000000000.0 0.3049866131635632 0.191236876503628 -0.005229895895038188 0.011919757385912675 -0.005408316819952023 0.011944856233803713 0.4335897775584053 -0.010519227208436087
3050000000.0 0.3177010380677831 0.1770799210596311 -0.004387427493989628 0.012764276856713757 -0.004408948087819253 0.012666278373548617 0.42709561401598495 -0.05364897750874342
3100000000.0 0.3315406466398623 0.15320351553746464 -0.0032305866766241887 0.013417410083982997 -0.0031721014833434465 0.01334655226806885 0.4114443131861375 -0.0978661131927149
3150000000.0 0.34430475767178575 0.13713470234844818 -0.002044241275734161 0.013818633377285477 -0.002051113405681356 0.013744394697984125 0.3964402358481652 -0.13635140215413888
3200000000.0 0.3524512332389163 0.11179263454980709 -0.0007481538196210462 0.014365357988357228 -0.0008278194436313459 0.01432542078276984 0.3710962337764009 -0.17521668536969504
3250000000.0 0.3647784925533234 0.09123673010325675 0.0007548137962443155 0.014907735717127836 0.0007079977209568817 0.014974183135353024 0.3446070413619511 -0.2091947913357248
3300000000.0 0.3687908032332694 0.06809557902621835 0.0025747188572998137 0.015120063738352198 0.0025697147576833903 0.015073598150145117 0.31108146412982995 -0.23627991337877446
3350000000.0 0.37659920306260153 0.043413226438493 0.003906703420225898 0.015073749943597456 0.003925708095940508 0.015000455890503877 0.27845097633951515 -0.26208907969717915
3400000000.0 0.3785981261434424 0.022171839259337925 0.005477328966796256 0.015016174028566504 0.005468085457297528 0.014981697815795275 0.24205803939789758 -0.2802715988602358
3450000000.0 0.38278276436896524 -0.0034074196803192923 0.0070101638960657865 0.01476398254385069 0.007058208547755742 0.014828250973496052 0.20232311487156154 -0.2964234225707304
3500000000.0 0.38364921602287 -0.025988047173307938 0.008752358499347732 0.01450557861612955 0.008780577572051723 0.014356291736887006 0.16296906035579276 -0.30315135184324676
3550000000.0 0.3817854302724974 -0.05212952441203876 0.010453518696824681 0.014104621058769891 0.010490197897574624 0.013931989457908096 0.12185559005775465 -0.30594084965926077
3600000000.0 0.3802388252252449 -0.07505305154682154 0.012364624205545481 0.01309230839766646 0.012284062079355325 0.013065168800617193 0.0835954059805047 -0.30098386479902983
3650000000.0 0.37368151717707365 -0.10133969925149883 0.014001210448508685 0.012057071194483536 0.01397839910799018 0.012019589673889903 0.044829477564999075 -0.291514237082232
3700000000.0 0.3703295301053712 -0.12381199335496244 0.015711834767818955 0.010682399546619677 0.015740316016828022 0.010651138858839313 0.011585057890104736 -0.27622797321913634
3750000000.0 0.3597328583487339 -0.14770434259111226 0.017128698301163273 0.009262484610470299 0.017257072433996427 0.009151218704959397 -0.02082729417993357 -0.25430825764245063
3800000000.0 0.3524135116532576 -0.17195540031710857 0.018537619047394642 0.0073495441459050645 0.018591839293182484 0.007259715013313642 -0.04651002544147435 -0.2309677661355556
3850000000.0 0.3393413591557435 -0.19214538642970985 0.01980994954813125 0.005440550713303865 0.0198519364980542 0.0054716172088536946 -0.06763863143373126 -0.20065062581057674
3900000000.0 0.32817235396663336 -0.21451525216331296 0.020725872673106948 0.003311065934352386 0.020678899922107214 0.0032286344491580955 -0.08396487525998407 -0.17161816912818226
3950000000.0 0.3139390512785094 -0.234241939877826 0.021549667030721937 0.0008641371791891059 0.02151613470234852 0.0010284270089847588 -0.09112171733924507 -0.1376266674994246
4000000000.0 0.2973655454182118 -0.25504870768797255 0.02198501799521038 -0.0014973373034407132 0.02188198848102487 -0.0014149256473766961 -0.09512146153320623 -0.10591787582318493
4050000000.0 0.28191165476199254 -0.27177007771461503 0.02210919295596264 -0.004105514553256702 0.022034923236392688 -0.004161072904687977 -0.09026078079196018 -0.07349564458587828
4100000000.0 0.26225734597298184 -0.2900918939357327 0.021812078649709774 -0.006630088224410499 0.02172504883855826 -0.006596331171314818 -0.08260941036441083 -0.04356778230544717
4150000000.0 0.24489970549370846 -0.3061541829878067 0.021431067879225725 -0.009212458237506226 0.021258708474944717 -0.009182190076169692 -0.06539785064261588 -0.01700627446971106
4200000000.0 0.22241179429595728 -0.3202317366120289 0.020407460554332246 -0.011785632743275036 0.020485834268233857 -0.011784125779975799 -0.04651151161666011 0.006012690964719347
4250000000.0 0.20334641745219154 -0.3345044497607657 0.019366295869162678 -0.014286256492498662 0.019364411509505217 -0.014161775460452808 -0.021362608564879013 0.02217941663109282
4300000000.0 0.1787637620651836 -0.34498966887452837 0.018027716263847127 -0.016763184744259575 0.01793029642700137 -0.01668129393025383 0.005451795171858294 0.03562676356828388
4350000000.0 0.15748277295336374 -0.3567749089129508 0.01623451336819323 -0.018792538155914185 0.016146537931213827 -0.018685848929470856 0.0338730364853611 0.03940203162593908
4400000000.0 0.13337028956257355 -0.3638643919980629 0.014094524592039515 -0.02080607698636987 0.014188861899771494 -0.020739736347233625 0.06416107728419208 0.04032809344645137
4450000000.0 0.10843357263318348 -0.37205736730565003 0.011999337018579808 -0.022489012004038533 0.011885792733371424 -0.022459961208514533 0.09107128861258997 0.032502461497106484
4500000000.0 0.08588643612370381 -0.3746607342446237 0.009524014488942889 -0.02397301971053799 0.009336989565899189 -0.0240059366648963 0.11952362690577528 0.019984178150552947
4550000000.0 0.059007114740975496 -0.37947326720899166 0.006634423653528905 -0.0252038749907867 0.00670675088406061 -0.025124299766232733 0.14144735646390383 0.0024173185234257076
4600000000.0 0.03637336983743406 -0.38133668755335287 0.003999945633281905 -0.026115459174750444 0.0038716525189233277 -0.026068639854347403 0.16267709654298323 -0.020484159991886176
4650000000.0 0.009666667973311524 -0.38090514325649766 0.0012088870071899 -0.026514075889456618 0.0012264850578011066 -0.026573594546522722 0.17689336509856243 -0.04581667773338307
4700000000.0 -0.013238501481469857 -0.38040707363748893 -0.0018609277658844915 -0.02682519668945119 -0.001865904640406655 -0.026920955445626945 0.18796388948477466 -0.07600968488645744
4750000000.0 -0.03922584758344603 -0.3753961415822214 -0.004788106660350222 -0.026741346838012547 -0.004771286744570322 -0.02669223627716387 0.19235706150724038 -0.10556375609031093
4800000000.0 -0.06270148104059856 -0.37220566401156047 -0.007663891380542994 -0.026236456412471236 -0.007707653798653807 -0.026243314937619645 0.19128043033263842 -0.13798768648407078
4850000000.0 -0.0865497052631472 -0.3637748737404649 -0.010559826753927425 -0.025551321350549442 -0.010601812354771414 -0.025367389521556514 0.1854004904653503 -0.16824408267975055
4900000000.0 -0.10943163677913265 -0.3570158754787196 -0.013406162503614887 -0.02441919182170236 -0.013422689935033934 -0.024394396090898097 0.17412172707647264 -0.19950732106782101
4950000000.0 -0.13182215415113957 -0.34576974734442734 -0.016158748773867086 -0.022894214495076035 -0.01616030614458421 -0.022930408272798356 0.15812850294440367 -0.22694469254495137
5000000000.0 -0.1539436378718713 -0.3351136819982635 -0.0186254148858393 -0.021351229954733902 -0.01849688026510189 -0.02124668751068502 0.13640792156020012 -0.25183930739072663
5050000000.0 -0.17337315775701986 -0.3219756894941674 -0.020769935787885243 -0.019464964506288124 -0.020914450916887393 -0.019543877394356264 0.11357527580918537 -0.2751195892359813
5100000000.0 -0.19433820123309406 -0.30750446575685986 -0.022974254245639848 -0.01737537152690336 -0.022999329278699764 -0.017531260550451296 0.08476758357521891 -0.2926751187177048
5150000000.0 -0.2114433328458416 -0.2934089961939904 -0.025005610571204935 -0.015125914963071904 -0.025024874021418952 -0.015207162115098634 0.05570220281633202 -0.307362113622846
5200000000.0 -0.22930689173601182 -0.27590534503313535 -0.02677410372087826 -0.012657011479766287 -0.02672179541146481 -0.012646384144071814 0.023356080693543054 -0.3161061790573953
5250000000.0 -0.24251522948154072 -0.26078385631151685 -0.028320073206325826 -0.009887993837843553 -0.028363566913310122 -0.009933885154538908 -0.009963330265664571 -0.3221721633134985
5300000000.0 -0.2593443368213206 -0.23961109941734224 -0.02966099233190126 -0.006958099498680618 -0.02949431272031636 -0.006776826211671657 -0.0419777089349329 -0.3216831068035658
5350000000.0 -0.27310471634063677 -0.22203624283848902 -0.030629518613244307 -0.00392090742147387 -0.030453793821828425 -0.0038959297165834764 -0.07596479303172976 -0.31738537416329576
5400000000.0 -0.2839384910839122 -0.20116176616350853 -0.031251785101563505 -0.0007221377132377706 -0.031059070284255603 -0.0006822270279344066 -0.10584824450896582 -0.30892829737105915
5450000000.0 -0.2949798561765592 -0.18158373160463073 -0.03166085996748026 0.002583895537764328 -0.03153668313607823 0.0025873286707116363 -0.13573222386425166 -0.29584781255894843
5500000000.0 -0.3026288996873171 -0.15937331170085245 -0.03160512324265665 0.0061223537416346795 -0.03167501634390445 0.00606244501974665 -0.1617399636145925 -0.2789069629479333
5550000000.0 -0.3113837460372215 -0.13944647778441605 -0.03128106076750502 0.009628456963521454 -0.03121525087469171 0.009722586562827113 -0.18642795405260645 -0.2588330538512542
5600000000.0 -0.3150185226126847 -0.11768898427142922 -0.03057098566962236 0.013045143564985996 -0.030524561674516913 0.013023903255782844 -0.2058432327877729 -0.23688024869474472
5650000000.0 -0.32124237742759437 -0.09601692044018147 -0.029267405502107158 0.01651750894489206 -0.0292943992562869 0.01647582970245304 -0.22288456583112456 -0.21184323862377566
5700000000.0 -0.3229770911974853 -0.07444959316280766 -0.02793659674656202 0.01971022218926625 -0.027940323269545993 0.0197896051667586 -0.23539733486638428 -0.187766363862749
5750000000.0 -0.32363902325007643 -0.05164425515913652 -0.02608068890641869 0.023165688290380498 -0.026132063702621666 0.023126803529450537 -0.24399788476268805 -0.1604349085115346
5800000000.0 -0.32385884987587354 -0.032424386314327196 -0.023950462185294955 0.026415467644112577 -0.023937104883578912 0.026462610140407752 -0.24920010072945986 -0.13570799334627062
5850000000.0 -0.3215830465150458 -0.010433968718927409 -0.02115733450247324 0.029447736214042293 -0.021214239540697455 0.029484732015247102 -0.24957917089521653 -0.10962683645178342
5900000000.0 -0.3193355194388888 0.008209092182227597 -0.01796576349490212 0.03238184781342181 -0.017783653421927437 0.032294323513392266 -0.2481134655042643 -0.08600886924955506
5950000000.0 -0.3136479617914724 0.029649277447864192 -0.01436931570090692 0.03474322584239185 -0.014274490761832586 0.03482291662400869 -0.24182795170173801 -0.06351336425632077
6000000000.0 -0.30921654593836484 0.04827466623972519 -0.01055673110343344 0.0369482123790903 -0.010432477823232705 0.03684843465169748 -0.23249056537090015 -0.04167826586596357
