! Created with skrf 2.0.0 (http://scikit-rf.org).
# Hz S RI R 50.0 
!freq ReS11 ImS11 ReS21 ImS21 ReS12 ImS12 ReS22 ImS22
100000000.0 0.008689675799834642 -0.016127325875585508 -0.00012966026922304506 4.032674702233558e-05 -8.308037127947382e-05 4.8359243462091296e-05 0.00839469832905612 -0.01370519343817167
150000000.0 0.0047502030284592356 -0.021523508389438752 7.581238933906451e-05 7.009181532145976e-05 6.539718647366256e-05 -9.697625340135345e-06 0.0049183058839785115 -0.018504777747962015
200000000.0 0.0016712159747414813 -0.03083445421639221 -7.104746434503986e-05 -1.1283507773992648e-07 -1.4882055885392192e-06 -8.415379593348944e-06 0.001584935654582357 -0.025876557229104577
250000000.0 -0.004031637338062286 -0.0352717337276629 -2.353549133505739e-05 4.214573885563786e-05 8.59364420211163e-05 -3.708496276875851e-05 -0.0029619799600656455 -0.030006520008892888
300000000.0 -0.009763833186387884 -0.04359770813522265 3.35225083831918e-05 -8.80094793317517e-06 -1.2617481573320932e-05 -3.2766237622496982e-06 -0.00859575344244477 -0.03621610183773362
350000000.0 -0.015270549981434752 -0.046356296385219306 4.7339647723791075e-05 8.709091732716573e-05 -9.149550648710684e-05 -0.00010858706410354137 -0.013444870761626315 -0.039171394004438226
400000000.0 -0.02444786267440187 -0.05296437636142359 3.3630441817991604e-05 -1.4065057776606961e-05 -4.030214839940556e-05 5.991018960914082e-05 -0.021808204228857046 -0.043378228679808124
450000000.0 -0.03054249763301967 -0.05458123777132681 -2.4830246546082325e-05 8.894269875121137e-05 6.082884894092238e-05 -7.762312073970642e-06 -0.02774724909344975 -0.045507259531282644
500000000.0 -0.04161062209090283 -0.057490571724912565 -5.221883851517273e-05 3.524898666518488e-05 -3.659781989739555e-05 4.808579843319565e-05 -0.03710826264608633 -0.0470595304375581
550000000.0 -0.04860174578651752 -0.05972630227161643 -2.864620018933841e-05 -0.00014315358870855242 -2.7270519051572547e-05 -1.6004476234476362e-05 -0.04403415539208015 -0.04880543947286199
600000000.0 -0.060031342789004745 -0.05906255226264071 2.941884330633456e-05 -6.994662314874194e-05 9.452404210983343e-05 -9.106200902734273e-05 -0.05377410893783933 -0.047109823396812835
650000000.0 -0.06871159041766428 -0.060323935894310565 -2.316156842012621e-05 1.3462846763015056e-05 -2.3012686361636352e-05 7.096335793020553e-05 -0.06235228163347955 -0.04786902467413007
700000000.0 -0.07952934520944535 -0.05620634668744286 5.8184377521146455e-05 -1.7148154793943674e-05 -8.874446084194859e-05 1.50866521361125e-05 -0.07151237182382081 -0.04375831677890256
750000000.0 -0.09009349885849882 -0.05577861068298316 8.01834594064738e-05 -4.87652957146333e-05 8.381495070509033e-05 5.562761998268808e-05 -0.0811017187257054 -0.04161386300186698
800000000.0 -0.0990161492256629 -0.04910875821188667 -0.00013288797458859363 -0.000156444498256504 9.633615008199412e-05 -5.4086251372198735e-05 -0.0890104124952912 -0.03545905662890193
850000000.0 -0.11096771755445119 -0.046068866192475875 1.4590977679824808e-05 1.8904715829115656e-05 -6.941630640073028e-05 0.00012981504877925877 -0.09968475752658307 -0.03055036148265329
900000000.0 -0.11834270657361544 -0.037814937136113634 8.3883994115402e-05 -3.451080272395977e-05 3.059402593727703e-05 3.126859339110449e-05 -0.10622632481020197 -0.023417458473496786
950000000.0 -0.1308077150614588 -0.030653445595820533 8.034833175345481e-05 -2.843312431517125e-06 -7.819177833249158e-05 -3.246886943562245e-05 -0.11588717069301353 -0.015318613665247581
1000000000.0 -0.13643673188426383 -0.02245398557030662 -6.318363409871797e-05 -4.94066651627486e-05 3.909985685451145e-05 -1.6696052351664793e-05 -0.12193141603317913 -0.007381451043699205
1050000000.0 -0.14711645599677803 -0.010670679642187203 -8.599783643387302e-05 1.3720549313716963e-06 3.5411553946118885e-05 -2.4904350993684566e-06 -0.1294891773096015 0.0040854829313225205
1100000000.0 -0.15266874064083968 -0.001890318253525793 2.437419881710932e-05 0.00012292558502437437 -7.605347260565474e-05 -8.575560922794473e-05 -0.13507560406526853 0.013603926004234837
1150000000.0 -0.160654879782196 0.012502395831532996 -0.00010489581925257132 5.0428402887476296e-05 7.45598528071674e-05 7.179673363737128e-06 -0.14004072803805553 0.026892410234969306
1200000000.0 -0.16538394873226972 0.022356124542219566 9.718675930137456e-05 8.75346180814841e-05 -1.4025082377967466e-05 0.00010800182924402236 -0.1445461074595759 0.03813214074181582
1250000000.0 -0.16907336815446772 0.038697283743700524 6.041627561002586e-05 4.30472840652769e-06 4.2136107315745e-05 -5.1378381095507e-06 -0.14618001561142044 0.052785381380312836
1300000000.0 -0.17441061556696885 0.05079368588334783 -2.8761172749735903e-06 5.4242894762524855e-05 -0.00011266507969304408 7.283030610050858e-05 -0.1496414580003132 0.06572042482648774
1350000000.0 -0.17358600149079237 0.066844542730353 -2.8727089719839767e-05 -1.6113130632944661e-06 5.062742356258671e-06 1.6445919981631148e-05 -0.1485523590300668 0.08050908987916261
1400000000.0 -0.1776679730863102 0.08193432351652206 -6.693349087114891e-05 4.1527005897041906e-05 3.719883382369891e-05 4.118559453224127e-05 -0.14965307624575255 0.09526896171648169
1450000000.0 -0.17406988470470952 0.09597316588496015 -0.0001933804357424273 -6.187846053084709e-05 -7.86401546276649e-05 6.034500990285148e-05 -0.1461152488952392 0.10909910920801805
1500000000.0 -0.17519226550620576 0.11413270139032129 5.43259511344737e-05 -6.377916019104499e-07 5.800587550632547e-05 5.527609232133744e-05 -0.14370063419658607 0.1256718911579842
1550000000.0 -0.1695932824975006 0.12751160811009413 -5.759965918889248e-05 5.360414199374624e-05 1.7649909054571785e-05 0.00012416658894192007 -0.13849374132477604 0.13896904839437418
1600000000.0 -0.1663005825041136 0.14659542018945365 0.00011530163029375676 -0.0001090462947081312 -6.54368276194328e-05 -3.373375072565058e-05 -0.13192437156583722 0.1555877583776412
1650000000.0 -0.16002502149709363 0.15898517948086358 3.2248989375370205e-05 -3.693980249802174e-05 -3.5834197313660476e-05 3.6086859984673514e-06 -0.12521179121630036 0.1686633483395295
1700000000.0 -0.1514518524047985 0.17770571151059447 9.433799783540487e-05 -5.689843137505052e-06 3.662420599847174e-05 -5.104859196478351e-05 -0.1151088561701729 0.18413425239266015
1750000000.0 -0.14469820146296047 0.18977262420518948 -8.477682382573368e-05 5.051219917519668e-06 7.203048752991555e-05 0.0001313465271596721 -0.1066928260076737 0.1969944188885277
1800000000.0 -0.13125610185693204 0.2064065352047831 1.520210764551144e-05 -3.897911548569302e-06 -0.00010279643861083003 -5.806195707911293e-05 -0.09315057701767454 0.21035901392776796
1850000000.0 -0.12354580838008408 0.22001962409126233 0.00011470391244923736 -8.117961385929186e-06 8.721431182133469e-05 -6.513232728330538e-05 -0.08251037997343004 0.22309144364613476
1900000000.0 -0.10718621819731969 0.23222764975470997 9.299102887224317e-05 -6.555952913248776e-05 6.464348213067054e-05 -1.774591574986029e-05 -0.06685585426500763 0.2336214675849676
1950000000.0 -0.09519359488771398 0.24796003057639823 3.7459233358955737e-05 -3.9943651928754884e-05 0.0001342303981767431 -6.363666894912004e-05 -0.05261607835453231 0.24584899561946486
2000000000.0 -0.07883315755232594 0.2558487553762284 -7.41757750135505e-05 5.205220237294897e-05 -0.00013406963317620066 5.654365783035492e-05 -0.035983668689645976 0.2535704975750101
2050000000.0 -0.06403488989495926 0.26942089380281964 3.353072666569216e-05 5.632264180540609e-05 9.343849167388793e-05 -3.5429700471595464e-05 -0.018111490324971787 0.2638263549492107
2100000000.0 -0.047013069576145296 0.2758778971199636 4.7123064233756564e-06 1.229376060996315e-05 -7.75769496793616e-05 6.88982649714551e-05 -0.001339833334107271 0.26901577633486934
2150000000.0 -0.028951058800106993 0.28731614655177173 -4.449563623886887e-05 -3.463884900568973e-05 4.2443859006378365e-05 -5.861162438949141e-05 0.01860761112257812 0.27610925019933996
2200000000.0 -0.010494600661850944 0.29086442366819426 -6.358580423807586e-05 -2.5837050171746667e-05 -9.147108668701979e-05 7.503029190489361e-05 0.03673197961051462 0.2798688503641288
2250000000.0 0.01163362261899298 0.2976975148348179 -1.1778866750484876e-05 0.0001764706179929867 -0.0001305033944662698 -0.00010297495045458218 0.05816968754540422 0.2825091189564057
2300000000.0 0.028623723668428722 0.30094585832362747 8.081002236524002e-05 -7.013634949139025e-05 8.682452520323046e-05 -5.4620657654753344e-05 0.07742599825830747 0.2841383596272766
2350000000.0 0.05241132258491685 0.30375499111755305 -1.3804029623823904e-05 -3.687140281713773e-05 -0.00010215736453429013 -7.767973417583386e-05 0.09946100352077468 0.2825738529802938
2400000000.0 0.07039479761506144 0.3056486286763529 8.088730828234533e-05 -6.400877407700649e-05 2.05051023698262e-05 4.409571155432049e-05 0.11900220369769605 0.2817126841804789
2450000000.0 0.09424297873669536 0.3021949773534056 1.5931447008567308e-05 -3.5711627675489943e-05 0.00011182426358102313 -8.266240483049461e-05 0.14078910055670338 0.2765583797978161
2500000000.0 0.11330329226619673 0.30323307837232066 -4.622629117963673e-05 0.0001973443099406356 0.00012336495019581672 3.5493985193245056e-06 0.16181938430657433 0.27228861541639404
2550000000.0 0.13558311038770282 0.2951679652641203 -2.1675185247244975e-05 0.0002143340940803883 6.997186415336915e-05 3.089449005212562e-05 0.1812806817362229 0.26329513302471014
2600000000.0 0.15685220236459918 0.29394879611945035 0.00014959086138386442 4.7334795642677764e-05 -7.736799354509448e-05 -8.141504143735138e-06 0.20234996888407306 0.25561880921031727
2650000000.0 0.17654302325840188 0.28347180102037034 5.535400064541864e-05 -6.379988334596566e-05 0.0001508904064994615 -3.254317020024756e-05 0.22052233048832964 0.24437275051002336
2700000000.0 0.19960605670135537 0.2762235565511307 5.5130226089186485e-05 -9.488247013008742e-05 8.251776253375827e-05 -2.975352961516425e-05 0.24108156145931864 0.23210437009062426
2750000000.0 0.21650820143618363 0.2650512894942301 -1.699762179815292e-07 -7.437176877201166e-06 5.80982309086013e-05 8.491208056818254e-05 0.25751426225168433 0.2193496416735564
2800000000.0 0.2378794911998215 0.2542134464780263 0.00017451899624788377 -1.9836321048287196e-05 0.0001667055067457117 -5.372503209542199e-05 0.2754185738070697 0.20312955589218698
2850000000.0 0.2537754407866429 0.24105140313526693 2.715023347055158e-05 3.0281464804311912e-05 0.0001297673033424269 9.295657388803422e-05 0.2903380325470323 0.18728898317897077
2900000000.0 0.2734883777161662 0.22558453155372324 3.268534680902739e-05 -8.464878628947318e-05 -1.8354063104268295e-05 -9.316927274978413e-05 0.3054225362889719 0.16835212736973082
2950000000.0 0.28825278315528347 0.21149696771940166 -1.4791794210186066e-05 -9.383794334297743e-05 -1.503451648307423e-05 -2.4351302014334458e-05 0.31736402185836604 0.15056686677720654
3000000000.0 0.30516177711161563 0.19139246946550412 4.2889338360571944e-05 3.8341618009716276e-05 1.0937936975279249e-05 -9.190411231842087e-06 0.3288778211294026 0.12861141945408303
3050000000.0 0.31819736002552584 0.1770168281955892 -1.7525242969163393e-05 -3.857901477232348e-05 -4.312023138604038e-06 -3.072434175841547e-05 0.3385252123136247 0.10921375107829846
3100000000.0 0.3316610434524976 0.15302734229726872 4.093051954685468e-05 -4.856232546519024e-05 7.125473090894688e-05 -1.9591839323236715e-05 0.34497663346576773 0.08655438432403582
3150000000.0 0.34445550423984156 0.1370392034242691 5.8202817117393506e-05 -1.740518935949311e-05 -7.274500549271025e-05 -6.89491776209409e-05 0.3518045939952862 0.06597610625877107
3200000000.0 0.35305440646705305 0.11186189994952525 3.4688204688057855e-05 -0.0001887075655505591 0.00012203947091624207 1.4394702494569419e-05 0.35397716250025674 0.044227770414185644
3250000000.0 0.3647188767212097 0.0910495909187359 -1.527505129987032e-07 7.027422322198542e-05 -3.0478088764957124e-05 -3.0058370186277373e-05 0.3578179189550403 0.023249497162411405
3300000000.0 0.36914553101111214 0.06795055983334035 2.2933502217923866e-05 -9.901927170670706e-06 0.00014764055603310838 -2.853734751170747e-05 0.35750273812007366 0.002998282892376094
3350000000.0 0.37664177167836393 0.04363067161810075 0.00011644164242579648 1.3077337848263363e-05 7.082711724619784e-05 0.00010741401057361365 0.3574303736019882 -0.018414580598720254
3400000000.0 0.3788947411602589 0.021983809302161265 2.631847063246546e-05 -1.8918998408878185e-06 -4.2057389623608734e-05 -1.665959190639249e-05 0.35640599778642457 -0.03628558556952822
3450000000.0 0.3827707581447862 -0.003370034575267226 3.9276263288200135e-05 2.207364182181005e-06 0.00017930834986546845 -3.720049917637365e-05 0.35368597347601743 -0.056494305104806526
3500000000.0 0.38351218253303143 -0.02620770004775143 0.00011043252265084535 -5.7875110549233265e-05 0.00014034535878168727 -4.2793356271760894e-05 0.35195558393712056 -0.07339252687759185
3550000000.0 0.3820078485712511 -0.052245578453253914 6.783138185802332e-05 -5.076564562965973e-06 0.00011382245413378987 -6.617765161818202e-05 0.34903979682994374 -0.0921644137481763
3600000000.0 0.3803336321824746 -0.07545950798044486 0.00016749461830795463 -9.54334900187748e-05 0.0001911349976276912 -0.00011854703098206618 0.34754715728609376 -0.11002240739977677
3650000000.0 0.37389379957169644 -0.10137767518985467 0.00011156325784234703 -0.00010086724580980046 -4.043302554574023e-05 9.149650241341142e-05 0.3432587978608039 -0.12992210820547986
3700000000.0 0.3701588920040483 -0.12411477041314335 0.00010939102377227641 -3.463116134342599e-05 7.417445373912079e-05 -3.502321010144987e-05 0.34005845143686414 -0.14968497913543533
3750000000.0 0.3598197654889393 -0.1481498508122642 5.907409822408227e-05 -7.195083817100083e-05 7.32528970792154e-05 -3.650885584045177e-05 0.33340172738260804 -0.16944294624620626
3800000000.0 0.35234562171881517 -0.17215272940460968 0.00019083097551684156 -0.00010834278161431028 2.3313186390577694e-05 -0.00019187848816083048 0.32680190891169614 -0.1912537695752041
3850000000.0 0.3391793257223602 -0.19278532258553635 -2.4663225481417755e-05 -0.00019264541139796135 0.00014317779008671746 -0.00012831106470241756 0.3180298981704986 -0.21040821756547598
3900000000.0 0.3280985772305647 -0.21477648165401855 4.471691283721059e-05 -0.00014770165079261346 0.00033096604955501913 -0.0001905419185659796 0.3067106007627701 -0.2324664466770147
3950000000.0 0.31382682656358324 -0.23453324648005652 0.0001947442226425226 -0.00017180514746548427 9.299994431165212e-05 -0.00017332370112770594 0.2958473119483497 -0.25158798136669774
4000000000.0 0.2973281875627737 -0.2551369031795616 0.00010588621330520954 -9.110375767592288e-05 9.430840756695744e-05 -0.00014355224567313242 0.2809284430897064 -0.27120198115991284
4050000000.0 0.28145484252226227 -0.2721622255628544 0.00010241290374293294 -0.00021497408046404235 0.00015133247603225063 -0.00024897936743994027 0.26586702025079867 -0.2892147263236439
4100000000.0 0.262034607524555 -0.29039580538106097 0.00012609430926545397 -0.0002445473615444493 0.00018794351044225843 -0.000201814824798899 0.2475799843105472 -0.30656957670598106
4150000000.0 0.24430551354801536 -0.3064255887611716 0.00019858416679910084 -0.0003691552156246167 3.1077845085727485e-05 -0.00026345672121781916 0.23017507734338952 -0.32263146949718613
4200000000.0 0.22219688156870743 -0.32040786093383883 0.00013276111152072713 -0.0003217600261375014 5.3425218899537817e-05 -0.0004375290811289735 0.2094947084528105 -0.3370460414048744
4250000000.0 0.20269373047806566 -0.3345600421392577 9.42168592510838e-05 -0.0002521124811789659 -0.00010194814485129756 -0.00039463789345792915 0.1888650311146719 -0.35128046536420293
4300000000.0 0.17849868172751837 -0.3450904277989055 -2.001332250623009e-05 -0.00034372916608562196 -3.545875542938901e-05 -0.0003989843414725077 0.16691387761267332 -0.36198497288503034
4350000000.0 0.15678079026428957 -0.35667407413193436 -8.910316774401057e-05 -0.0004963867781774717 -7.827633754591655e-05 -0.0003547904502951174 0.14392861619346894 -0.373415772397252
4400000000.0 0.13290670602732643 -0.36379037415649546 -0.00028118760726229537 -0.0005263708110081545 -9.834065106318038e-05 -0.00042390696904968803 0.12137544183899783 -0.3811283599064965
4450000000.0 0.10801406605299954 -0.37186265374476873 -0.0003852986624763641 -0.0005383464492446196 -0.00023601829593943442 -0.00043990765192038634 0.09571475562965007 -0.3882525279066034
4500000000.0 0.08514528309254613 -0.3743569510075562 -0.00032911972736045225 -0.0003797238238924552 -0.00037727985513015885 -0.00045492009155220135 0.0726118717045123 -0.39392119415218874
4550000000.0 0.058702860848860144 -0.37913826272891654 -0.0005172789764537088 -0.0005521829131079123 -0.0005507468635763815 -0.0004964780657108721 0.04688085213136942 -0.3965949836231489
4600000000.0 0.03590634615696521 -0.38094807182288487 -0.0005314129629224291 -0.00017885570985088048 -0.0005886409563925102 -0.0003553845408956927 0.022304255556739493 -0.3985799760531449
4650000000.0 0.009321656156733195 -0.3802042148962209 -0.0006090999358164303 -0.0002963228173922473 -0.0006605127226722017 -0.0003325910335924829 -0.0033634748730863606 -0.3977207263371394
4700000000.0 -0.013598117784329714 -0.37975771749889864 -0.0006832580006084562 -0.00017938788172600363 -0.0007741204459754899 -0.00013720321230483197 -0.02784561237988812 -0.3965001183616796
4750000000.0 -0.03952039472707218 -0.3748329106801302 -0.0008290100692077361 -8.053965727666999e-05 -0.0007203795334832647 1.761538790645409e-05 -0.05225680099747052 -0.39180706922079345
4800000000.0 -0.06309869344547094 -0.37136215557838964 -0.000700287681789282 8.074946394415986e-05 -0.0008580110004881831 5.786229029869181e-05 -0.07666332457865177 -0.3869790209387041
4850000000.0 -0.08664856237695348 -0.3632173587916018 -0.0006946722958272215 0.00012117323382425816 -0.000958988118227724 0.0001498771838415907 -0.09974302407468749 -0.3794111675777002
4900000000.0 -0.10975885947950939 -0.35620344096854256 -0.0006552482168727236 0.00023972774187514434 -0.0007963601576791066 0.0004214816948975041 -0.12265601031708438 -0.37167479630147426
4950000000.0 -0.13169649377171536 -0.3449700487061847 -0.0007408342404273811 0.0003669661846775471 -0.0007268324560733706 0.0003513820357253702 -0.1445380007236235 -0.36074971242155723
5000000000.0 -0.15381242489125072 -0.33431105687326085 -0.0006415828568674145 0.0005354139867989672 -0.0006833792217532813 0.0003613487170902074 -0.16699820846307076 -0.3492498955238269
5050000000.0 -0.17302105516708025 -0.321181885009963 -0.0005618679058786495 0.0006019057030957429 -0.0005247294430146471 0.0007289080406479107 -0.1864817468557566 -0.3371946757046056
5100000000.0 -0.1937805979125526 -0.30678503305813726 -0.00048479845359801656 0.0007260367516704164 -0.0004013935940506421 0.0006963014741425704 -0.20619744994287498 -0.32282507259171767
5150000000.0 -0.21103302438863947 -0.2925931979568317 -0.0003429677457780629 0.0006937782398015497 -0.00037285479667577563 0.0007513189199166634 -0.22403906531737774 -0.30825521500885517
5200000000.0 -0.22876458202915798 -0.27516023064987816 -0.00026352913585984164 0.0006998563822589948 -0.00026952019173872893 0.0007266085212364449 -0.24120981182199816 -0.291081817821605
5250000000.0 -0.24211727902474114 -0.25978221787295336 -0.00022753566883883562 0.0007752890347276116 -0.0002995762637442902 0.0007110133369947317 -0.2577400731769855 -0.27496439339180967
5300000000.0 -0.2585546036534283 -0.23914699077897697 -6.638187798692252e-05 0.0008985403734312912 -3.7386247828523746e-05 0.0007772197529837812 -0.27103084624652785 -0.25626939723631803
5350000000.0 -0.27240335713272856 -0.2215235356491227 -4.6548636025976385e-06 0.0008265333492806279 0.0001387785928926724 0.0007706849592597828 -0.28545580982990054 -0.23733187148701132
5400000000.0 -0.2831005379581991 -0.20076648038110032 8.579478947734985e-05 0.0007932342552120344 0.00022555557132986857 0.0007161099219101177 -0.2958607884097131 -0.21854864162835297
5450000000.0 -0.29371269310660936 -0.18119626061590743 0.00015413133921627985 0.0007174313532994727 0.00013395562068445902 0.0008868289619522207 -0.3066698413878606 -0.19847527603327791
5500000000.0 -0.30149309052221335 -0.1591593183632499 0.00035369542788034905 0.000675689176805588 0.0002598526888038368 0.000653393340623739 -0.3150668423042384 -0.17765212175749506
5550000000.0 -0.31003113524758236 -0.13939010719650016 0.00044892972707094445 0.0007647888544666035 0.00035719004552346945 0.000745700833742776 -0.3232596742142416 -0.1568141155674265
5600000000.0 -0.3138490508420997 -0.11757374716414187 0.0004772881658076634 0.0006073764617690397 0.000480292431834483 0.0006235163275498347 -0.32857228687547857 -0.13606729668159573
5650000000.0 -0.3199650020832249 -0.09598731919223553 0.0005700033963598355 0.0005996118906768826 0.0004538304404434333 0.0006502040782292266 -0.3335895451403351 -0.1140608780765855
5700000000.0 -0.3218604153660332 -0.07488585978821143 0.0005006096416636605 0.0006050861876445592 0.0006168972005920677 0.0005478390988036737 -0.3364219632014981 -0.09406365107838147
5750000000.0 -0.3224906276397667 -0.05218787915429927 0.0006436278490668104 0.0004638717261629325 0.0007093196138453571 0.00035407646798153107 -0.3381160700384118 -0.072023185538306
5800000000.0 -0.32265319414910326 -0.03309535932031858 0.0006480623281998487 0.00046792269314927735 0.0006900315899259327 0.0005811315129779495 -0.33849545696931993 -0.052053443157191896
5850000000.0 -0.32039269991966185 -0.011503072522104703 0.0006009580638835904 0.0004109856459821512 0.000771343799923154 0.00033333338403989353 -0.33684379363842293 -0.0310811094456976
5900000000.0 -0.3178891668580755 0.007038578358492568 0.0008540584509505978 0.00034818144655043566 0.0007936034076168171 0.00018954220845232673 -0.3355221325808421 -0.01103379532919658
5950000000.0 -0.31279222300169307 0.028240290189875998 0.0008073382411302408 0.0001836166817955794 0.0007920770550210918 0.00015930753134682046 -0.33087962871849325 0.00838791485915042
6000000000.0 -0.30826474270034004 0.0467066597782573 0.000763067080283431 0.00023190566421107554 0.0008189127281944572 0.00011992739661186391 -0.3264715133130093 0.02857725083743821
