! Created with skrf 2.0.0 (http://scikit-rf.org).
# Hz S RI R 50.0 
!freq ReS11 ImS11 ReS21 ImS21 ReS12 ImS12 ReS22 ImS22
100000000.0 0.059446706389063825 -0.03460570544203284 0.8799951895224343 -0.2073413467464184 0.8802737776303912 -0.20727866207859885 0.056977660905945554 -0.033118992387048116
150000000.0 0.049496234924385596 -0.04739432743503868 0.8465158282508851 -0.30482313639027464 0.8468462490614993 -0.30497426131883537 0.04173262797606048 -0.045299375456702935
200000000.0 0.04180956647922121 -0.06504945148961125 0.8061991854404679 -0.3981365833010911 0.8061119635677287 -0.3983601808894267 0.03709170046659224 -0.061937991234161265
250000000.0 0.028483442392211483 -0.07510523327969244 0.7536362892341788 -0.48338975935201456 0.7533797191726644 -0.4839495758401875 0.01997597401922019 -0.06946440877415264
300000000.0 0.013869732359391651 -0.08918260355014708 0.693248051776407 -0.5632705185205699 0.6929660660466186 -0.5636226043273447 0.007761503208550652 -0.08204223373313943
350000000.0 -0.0014910932465740656 -0.09484063421181785 0.6238894887972553 -0.6349501697028448 0.6235354948097812 -0.6354546230725859 -0.008513964237109733 -0.08587634877599687
400000000.0 -0.0212044335206817 -0.10198954579696431 0.5465042159227793 -0.6980299883012727 0.5460893060563107 -0.698555248837653 -0.028184022550918883 -0.0890905846897585
450000000.0 -0.037186524642170524 -0.10357923709746143 0.46382289658799813 -0.7527491002953736 0.4640382582219679 -0.7525095644210782 -0.04269296753058574 -0.08878723030020397
500000000.0 -0.06000470584449213 -0.10172992705492784 0.3756122280328846 -0.7947465306511832 0.37555162991765784 -0.7950299194262472 -0.06567529363707798 -0.0833106886743823
550000000.0 -0.07588620549651015 -0.1008669922509276 0.28393239749712396 -0.830187156308932 0.28364658343421306 -0.830101231464157 -0.07838946857288598 -0.08217121490571563
600000000.0 -0.09796687083717917 -0.09062873821042843 0.19110853739762343 -0.8503560368218808 0.1908290060000898 -0.8504874029494529 -0.09809678549684611 -0.06637770510591051
650000000.0 -0.11418492950645515 -0.08465232308719961 0.09478015759735556 -0.8648671148704548 0.09480950911389077 -0.8648531644926046 -0.11130494943181166 -0.06215817847749716
700000000.0 -0.13123527410984467 -0.06715460024249748 0.0002963603014365761 -0.8637553097178314 0.00015658983171663865 -0.8643242883651544 -0.12486608035591243 -0.0396076041255457
750000000.0 -0.14603160852961233 -0.05634152391585129 -0.09526452284453635 -0.8567318712437141 -0.09521129147014719 -0.857017456209569 -0.13721950358707236 -0.030566324979724502
800000000.0 -0.15662835128280933 -0.035037176862171504 -0.18586239718668654 -0.8359274489139458 -0.1866337553736825 -0.8363073174209341 -0.14355250229278324 -0.005352425724196613
850000000.0 -0.16791153235372425 -0.018978417296114436 -0.27651128749690584 -0.8083329949841485 -0.27703030334243706 -0.8084510200029511 -0.1519768619061066 0.008647683218447944
900000000.0 -0.1725756888492616 0.004454598093393075 -0.3595812590478952 -0.7693385290578049 -0.3601702592173047 -0.7692978630864823 -0.1508660141838338 0.03245280343575124
950000000.0 -0.17924675390055106 0.02576764542598095 -0.44022992534968813 -0.7222793586125339 -0.44008487733720886 -0.7226918237773239 -0.15436793175038446 0.05140039832151057
1000000000.0 -0.17671183379878055 0.04809132575396194 -0.5123647477808255 -0.6681773301151048 -0.5127684426380913 -0.667725589945511 -0.14867184595386135 0.0713908505137153
1050000000.0 -0.17506950642498004 0.07227074700284178 -0.57884947749364 -0.6054296519003204 -0.578720143636344 -0.6056793571304797 -0.14355222653103297 0.09464528334842674
1100000000.0 -0.16778309891924006 0.09134590059886832 -0.6385796095090203 -0.5383894448850834 -0.6391776528934828 -0.538062273108962 -0.13408114716399358 0.10855548509850102
1150000000.0 -0.1579036130688031 0.11580647466185803 -0.6880975155948309 -0.4644281336704064 -0.6889066472239566 -0.46409412205232753 -0.12098105324032343 0.13130646666956491
1200000000.0 -0.14623249637484068 0.13040811038757677 -0.7330659298605791 -0.3874109652882568 -0.7335617350780335 -0.386380571489763 -0.10882789148990196 0.1406136785720363
1250000000.0 -0.12863639747788963 0.15111517060240237 -0.7650208422746951 -0.30516800871522115 -0.7656171721987162 -0.30433990338313377 -0.088600073546961 0.16022034499037086
1300000000.0 -0.11479843427323064 0.16238250877522414 -0.7932782059335827 -0.21978362637993137 -0.7934773451668834 -0.21952516614507311 -0.07713851201823921 0.16599714390208412
1350000000.0 -0.09092881787822751 0.17543002186772694 -0.8074783328748443 -0.13509393441566775 -0.807714251210388 -0.1348722095917004 -0.05164886816182296 0.1777640476731668
1400000000.0 -0.07541003463752499 0.1832864533516293 -0.8165126085662959 -0.04654784304591063 -0.8168177568156973 -0.04625857652331461 -0.03852455335281227 0.18032973946097114
1450000000.0 -0.04990421321431847 0.18649373065735386 -0.813459863158312 0.03972539946007733 -0.8131482306576825 0.03955616077191582 -0.013435172400050488 0.18334918725186822
1500000000.0 -0.0325070132374069 0.1907236611019599 -0.8039150050664998 0.12682444582409236 -0.8041594575923142 0.12717568678606145 0.001507183211307439 0.1825974730424011
1550000000.0 -0.009044156867937789 0.18638912983678313 -0.7835318829365989 0.20998610929039868 -0.7832461288988648 0.21049793486327686 0.023291458479503327 0.17805873726619248
1600000000.0 0.009487246198769686 0.18432035501776403 -0.755003479549365 0.2928496571722265 -0.7550713968542767 0.29279469051704343 0.040036215660214605 0.17348015021221086
1650000000.0 0.027528896223435642 0.1742134420530418 -0.7185455630466469 0.37104765231750214 -0.7183117314553488 0.3709579796949172 0.054775054838374165 0.1624840809866896
1700000000.0 0.04564688955511745 0.166326735170435 -0.6731219387272331 0.4446452745549358 -0.6731940436006156 0.4447662882162626 0.071353412819632 0.15400559627118446
1750000000.0 0.05671561894218417 0.1520157186926217 -0.6212002279202686 0.5143403945534432 -0.6211634808603063 0.514593819413375 0.07789397672374503 0.14057936325814405
1800000000.0 0.07210586835062348 0.1381680605119162 -0.5608371664166197 0.5763083645394736 -0.5611494484859036 0.5768799067816276 0.09296675839771579 0.12691313718804206
1850000000.0 0.07600801216976914 0.12305493320253863 -0.49543277673848307 0.6343535793896882 -0.4955696349460116 0.6344788606694904 0.09181396394334132 0.11427068971584636
1900000000.0 0.0853691228231284 0.10481022052780896 -0.42321962040756644 0.6820775522942844 -0.4227272428154086 0.682627092590979 0.10187244916369148 0.0979230999714984
1950000000.0 0.08366667671189076 0.09213736801431868 -0.34606365396537236 0.725215402633903 -0.3460267366670732 0.7250653977992212 0.0988104497454569 0.08819602401430264
2000000000.0 0.0837980211574332 0.0722260180899672 -0.2662682375245446 0.7562984614880154 -0.26612459850721404 0.7562220689796252 0.09943419233571049 0.07041612385700438
2050000000.0 0.07688592846022509 0.06145460925465587 -0.1814923928865096 0.781872930087704 -0.1813712819557661 0.7819512587321668 0.09172999030579781 0.06315079321354769
2100000000.0 0.06769237142920266 0.04482124097617682 -0.09425914383750002 0.7950959067265315 -0.09492009299928618 0.7951976867864942 0.08724946065749406 0.04968793718854075
2150000000.0 0.05819942506423108 0.03865372133479256 -0.007687568835503811 0.8008381153787751 -0.007340210821507351 0.8012343694704327 0.0762298968357222 0.046083622177760054
2200000000.0 0.0441568064904142 0.02767249255068129 0.08119686170081404 0.7952542016276377 0.08120073179401269 0.795210748799164 0.06657245865318802 0.038287929924805536
2250000000.0 0.03145182978133121 0.025520622673366352 0.16922548765609932 0.7797835001025375 0.16942325287796484 0.7800120486625222 0.05844056583332184 0.03658216634431681
2300000000.0 0.01366895294287565 0.025146383345263455 0.2540084008732331 0.7551778549169155 0.254050244770728 0.7550657441791152 0.044475909006471054 0.03833369040720302
2350000000.0 0.0010298659022081186 0.02902520244334157 0.3354027199489287 0.7202928094069319 0.3363160939812619 0.7199457861330794 0.03664441633977283 0.04106910520517856
2400000000.0 -0.01647733329942891 0.0380041251871152 0.4127409427276824 0.6768858486039463 0.41297529498237007 0.6767687550179027 0.025637020320283282 0.05069580023370404
2450000000.0 -0.028547026993542612 0.04646798071195989 0.4848028836164676 0.6227890680796183 0.4846899035766462 0.6230025750404485 0.019488496257910035 0.055606000770337075
2500000000.0 -0.04071217650482335 0.06502564859796793 0.5492224237146717 0.5635525757796289 0.5492997780651551 0.5631688111613599 0.013625240032399788 0.07363598395255475
2550000000.0 -0.048956582251301506 0.07964319786866574 0.6054473421256917 0.49528527118747034 0.6062810783529167 0.49463704525881996 0.010685761643666455 0.08156978954168054
2600000000.0 -0.05154371362625319 0.10467851455002536 0.65403175464312 0.4232202059291429 0.6541497219810047 0.4230314842954037 0.013645989254069374 0.10216126252061344
2650000000.0 -0.05423737594762164 0.12510436270327902 0.6933434619645027 0.34291296500370905 0.6933949539298908 0.34305480958275764 0.015449696699045994 0.11289626997310018
2700000000.0 -0.04590174899292632 0.14959653105679463 0.7236564541981498 0.26097348693198613 0.7233334169988412 0.26122759276909097 0.02665368513938684 0.13123033952206298
2750000000.0 -0.03996171447927141 0.1729336197748337 0.7416626634868628 0.17831769844226947 0.7417232625094535 0.17805534265160053 0.03530597076659199 0.1454232986712642
2800000000.0 -0.02230229365005308 0.19641614578157446 0.7510171484538967 0.09449337499227786 0.7511436952471694 0.09371109383687883 0.05310894794658455 0.1583592543415185
2850000000.0 -0.005940062978796089 0.21876781093519657 0.7498095898627478 0.010843593138909612 0.7495294485025005 0.010589527910823045 0.06790390062193412 0.16952697955772061
2900000000.0 0.020666962247742487 0.23624738854772026 0.7396655532465876 -0.07166407745553158 0.7393362931286369 -0.07149595830064125 0.09049753549028372 0.1768574630823217
2950000000.0 0.047262614327356754 0.2527626200238972 0.7200413989459341 -0.15042768927688013 0.7201409836342232 -0.15031194303111609 0.11173772677044286 0.18325534298801546
3000000000.0 0.07942539509461516 0.26154499095738837 0.6919397032132388 -0.22710156250756822 0.6920141296771365 -0.22636713817976684 0.13472559146103025 0.18160495880801558
3050000000.0 0.11302502167481185 0.2687899260848262 0.6568042983157698 -0.29342028534900566 0.6565476769544528 -0.29390370793460596 0.16138571813136735 0.18288673740159572
3100000000.0 0.14788577340214698 0.26554005070134123 0.6147645642068824 -0.3592985548056262 0.6142463223649285 -0.3601559393673771 0.18244279390593243 0.17354105962720717
3150000000.0 0.18553146413569532 0.2617872623638758 0.568679924066776 -0.41487551659155814 0.568371938885387 -0.41516849212678575 0.2101479542339189 0.1667590563832356
3200000000.0 0.21826545501115518 0.2475628182798524 0.5157624798948509 -0.4692189149924599 0.5154514969406786 -0.4693110865693104 0.2269724520738566 0.1529618172423756
3250000000.0 0.25428158928619915 0.2300251310223221 0.4620963735618176 -0.5137645193954359 0.4623907363662456 -0.5132871680542962 0.25205953342230886 0.13710375902521157
3300000000.0 0.280355181564183 0.2084814919296329 0.4014099637077144 -0.5549432680990909 0.40140514636296987 -0.5548547504989864 0.2661244875184304 0.12070915491929264
3350000000.0 0.3094576940334628 0.18050352287681168 0.34316339195946277 -0.5872677138243595 0.3435223145887538 -0.5867416182015627 0.2854924822554188 0.09978377925269946
3400000000.0 0.3292415786724684 0.15400255201405139 0.28109041532186374 -0.615533704690065 0.28067335296520646 -0.6159081646798258 0.2990701775095286 0.08176171459541559
3450000000.0 0.3486228983856565 0.12047059731959098 0.2179626173944569 -0.6375665667984024 0.21729220967508783 -0.6372239543161091 0.314018168365354 0.056775234028812294
3500000000.0 0.36253072939590636 0.08967237195959579 0.15118344091227964 -0.6549463919691694 0.1513143628362252 -0.654861346492374 0.32464247495702064 0.035153468142757584
3550000000.0 0.37085075029340164 0.054418625536983414 0.08448388899258022 -0.6657258892074251 0.08423122743867277 -0.6653814568915027 0.3354826033949385 0.007905890783382052
3600000000.0 0.3782558094793508 0.021660888838996396 0.014508336145357351 -0.6697727615513954 0.014554198813254187 -0.6698449822197534 0.3439893930079905 -0.017904558254636944
3650000000.0 0.3789505257744347 -0.013492480927033893 -0.05619338043189412 -0.667048265639136 -0.05554289611562967 -0.6665885079699044 0.34766623442183675 -0.04764636450744106
3700000000.0 0.38110243234471397 -0.0471197369618916 -0.12523774289949005 -0.656170167777054 -0.1256037627992495 -0.6558776151048525 0.35243300990001186 -0.08016439137912929
3750000000.0 0.37416823727163134 -0.08026487925844275 -0.19401195555838882 -0.6389491418838076 -0.19415891343388406 -0.6388780701135256 0.34762655403644915 -0.10988795078100877
3800000000.0 0.3691953266247068 -0.11636780021043411 -0.25867305229133264 -0.6135268879471992 -0.25835488152929253 -0.6135234736414978 0.3430935208558954 -0.14562972610090158
3850000000.0 0.3559844541748066 -0.14591995427323562 -0.32228002455762617 -0.5819223410213243 -0.32247107817378756 -0.5820635142688664 0.33184059993060305 -0.1739604959385861
3900000000.0 0.3433407876122806 -0.17916153645399846 -0.37910943818482834 -0.5439772296125992 -0.3794301089028703 -0.543590017042472 0.3181093136627757 -0.20963868544196207
3950000000.0 0.32488338034025654 -0.20741045933231933 -0.4362019636098179 -0.4995983972570275 -0.4362807217387813 -0.49939374550596555 0.2999193364668632 -0.23469498960502158
4000000000.0 0.30242040908424767 -0.23768325440618654 -0.48374628066887626 -0.45077771288297996 -0.48373816330914954 -0.45056387626823496 0.27795108263533985 -0.2636981869285719
4050000000.0 0.2796667557925554 -0.26056541223644847 -0.5288071055951148 -0.3962307438148715 -0.5290016704075148 -0.39562916519374014 0.25396102926798964 -0.2856099801153715
4100000000.0 0.2507536338023018 -0.28466416494303576 -0.5662852486069643 -0.33741546520513116 -0.5662436610364532 -0.33736095480227096 0.22438958235499964 -0.3070045702222281
4150000000.0 0.22278492211413137 -0.303464091157608 -0.5985429744162704 -0.2748279108189479 -0.5985335636953361 -0.2750190063182392 0.1966569114724719 -0.323038198497831
4200000000.0 0.189784910126753 -0.3176585603969353 -0.6234992247690934 -0.20955297986529747 -0.6235143093722089 -0.20960537062035367 0.16448330616836065 -0.3362244114029219
4250000000.0 0.15852700110431173 -0.3302805652108233 -0.6421030835070869 -0.14154791873716624 -0.6420209498930926 -0.1411460714299711 0.13296464057632315 -0.3463470073364784
4300000000.0 0.12377612036987709 -0.33567067263410394 -0.6533843112384747 -0.07231358162834794 -0.6532007738447415 -0.07227620118266134 0.10060764736319641 -0.34948701103430496
4350000000.0 0.09140748772556798 -0.3410249146373762 -0.6567821464750115 -0.003108046716285069 -0.6566945211596622 -0.0029814353473302142 0.06795180993928934 -0.35347475893486713
4400000000.0 0.05875743039104353 -0.3373355562169997 -0.6542210256147661 0.06865612110305654 -0.6542761353685441 0.06799187309078208 0.03871249223619752 -0.3473301938424381
4450000000.0 0.025452023729417246 -0.3348574429435699 -0.6424282539306303 0.1374034274581632 -0.6425133294489755 0.1369521113911783 0.005359097657442288 -0.34391996168064953
4500000000.0 -0.0026965771679534484 -0.3230944192409479 -0.6251033151601465 0.2053492811540297 -0.6248040697423559 0.20607564473346476 -0.02068318255357847 -0.3332910812534533
4550000000.0 -0.03355597670121442 -0.31341362133588513 -0.5990454090907075 0.2722184307310656 -0.5983276388036101 0.27275723560858944 -0.04872872341353644 -0.32187924759930153
4600000000.0 -0.05670427980781218 -0.29809149093433773 -0.5666587378912438 0.33614981570567676 -0.5665959002874916 0.3360954585502697 -0.07027039365892795 -0.30571853861673615
4650000000.0 -0.08168181684473204 -0.2799031581348215 -0.5266572886163425 0.39584793068101926 -0.5266130483626663 0.3958924792691241 -0.09414433578153118 -0.2891982440791969
4700000000.0 -0.0992444853723437 -0.26166469949545085 -0.48063121466924225 0.4521133857808394 -0.4802543254111231 0.45227857709225544 -0.10982726361944276 -0.2702764819100761
4750000000.0 -0.11681196932257712 -0.23897515532868535 -0.42807238183547563 0.5026269880201386 -0.42782821118431386 0.5023958833148049 -0.1259212483972105 -0.24946323968268785
4800000000.0 -0.1285571004880186 -0.21922332983789694 -0.3701036575424969 0.5474820549045906 -0.3700989665406912 0.5473347191840819 -0.13688919447053405 -0.23012671074383056
4850000000.0 -0.1385820787156913 -0.19549884900957099 -0.30698501561455 0.5853146228363478 -0.3071386901342896 0.5851217336024139 -0.1453982405892737 -0.20808626488452564
4900000000.0 -0.14428959034234887 -0.1750150780604084 -0.23937650701603255 0.6164777067436005 -0.2392089973034321 0.6162365037954775 -0.15094204230320699 -0.1892706769544613
4950000000.0 -0.1456535026510488 -0.1532168097930593 -0.16665673339734235 0.6400895193457405 -0.16629227904712618 0.6404218421481632 -0.15145220859725989 -0.16883772137947195
5000000000.0 -0.14678136391629043 -0.13383540238538802 -0.09477434231628246 0.6544969708187145 -0.09475063422357571 0.6544943750239405 -0.15443927343224434 -0.15058356170956477
5050000000.0 -0.1418805976969449 -0.11633977230210456 -0.019823874905198945 0.6613119097901987 -0.019749728768542345 0.6612850681578504 -0.14935570071379786 -0.13474327147998622
5100000000.0 -0.13850432120314 -0.10008062717990276 0.05481657922632111 0.6586618140275748 0.054903746527734776 0.6586600477669172 -0.1480670084864876 -0.11933329124619807
5150000000.0 -0.1304410900103741 -0.08839289051470482 0.13028468998645984 0.6478045674336286 0.12967248546295576 0.647855450838036 -0.1394586595561322 -0.10839227649993806
5200000000.0 -0.12346083829070739 -0.07624983435925498 0.20292617515367362 0.6280755328987039 0.2029685410481849 0.6275813514253735 -0.13570757911229794 -0.09632779329261207
5250000000.0 -0.11274057955903359 -0.0711672152913877 0.2729561422795963 0.5999747238340285 0.2732920635303969 0.599692304901423 -0.1274551627851773 -0.09019423905404186
5300000000.0 -0.10561957444546972 -0.06316276210387163 0.34116470445656166 0.5624028887086723 0.3409822106729355 0.5622930600985309 -0.12020079664085219 -0.0837279948305781
5350000000.0 -0.09885656798785612 -0.06268770329363921 0.40262139856109763 0.517755446020811 0.4030632505717688 0.5173469850472133 -0.1138445127295755 -0.0818558464275207
5400000000.0 -0.09092359191475774 -0.06102575782625263 0.45810468066205656 0.46631695378298954 0.4582897650700128 0.46627811427396665 -0.10725554843359769 -0.08069753547583475
5450000000.0 -0.08675013690237444 -0.06373384759300407 0.5074169709663559 0.40836627664677505 0.507472243730717 0.4086152467563777 -0.10402170670072489 -0.08179074875311111
5500000000.0 -0.08306098598574271 -0.06557673046560998 0.5496169072158698 0.34482878830864305 0.5492674606018428 0.34466457227522823 -0.10008612733043684 -0.08258031734833976
5550000000.0 -0.08385976767427566 -0.0708949763035503 0.5828998261316922 0.2771511028396373 0.5825944924270139 0.2770880018515222 -0.1001720917908712 -0.08535627908058686
5600000000.0 -0.08407667950341961 -0.07477701756266011 0.6077755967900178 0.20623128042374167 0.6075184044030988 0.2062332081758726 -0.10049648355562782 -0.0891301176339662
5650000000.0 -0.0892134645896755 -0.07757701750873558 0.6244478644608797 0.13407695403640366 0.6242262351949358 0.13378983554472385 -0.1038198588888482 -0.08949536566802388
5700000000.0 -0.09422410558754518 -0.08125550377968149 0.632198995845606 0.05837571158294777 0.6318630602074582 0.05937630276030961 -0.108442735653452 -0.09541732019850437
5750000000.0 -0.10029533137980673 -0.08142795120990202 0.6311321849365326 -0.015128417545122425 0.6312697709452827 -0.015152611161636867 -0.11307061121351311 -0.09417291563142664
5800000000.0 -0.11096850565559646 -0.08415297273345136 0.6207646248166273 -0.08788837170764748 0.6205576194336573 -0.08808803526258532 -0.12153219614841196 -0.09770530957740688
5850000000.0 -0.12033078333957895 -0.08093056084179215 0.6014100339834264 -0.1588507913931446 0.601241737872894 -0.15880623333759536 -0.12955000098955372 -0.09439375554882189
5900000000.0 -0.13259067889034554 -0.07778430865561121 0.5731219784401346 -0.2263281331472312 0.5727212660510462 -0.22618680670761118 -0.14200685977351796 -0.0925384270731844
5950000000.0 -0.1418827983186005 -0.0676915611917579 0.5377297968755331 -0.2883540681077217 0.5378751529475371 -0.2887341331791659 -0.15033918178068156 -0.08447630848859458
6000000000.0 -0.15142836307602003 -0.05834571891808144 0.49711025595706476 -0.34324652491664503 0.49692919676999364 -0.3431075221085189 -0.16047146398112344 -0.07405727862129309
