! Created with skrf 2.0.0 (http://scikit-rf.org).
# Hz S RI R 50.0 
!freq ReS11 ImS11 ReS21 ImS21 ReS12 ImS12 ReS22 ImS22
100000000.0 -0.2786524272844754 0.06753428309333788 4.5389277397583414e-05 9.917988070442803e-06 -0.0001236789404791345 1.1927020173615141e-05 0.008526156947676281 -0.013828973700836054
150000000.0 -0.2676898601555335 0.10076657692854174 -3.4385052400205537e-05 -1.4774338322738776e-05 -5.7245082061065156e-05 5.856769883017301e-05 0.004836873893420057 -0.018491147395346918
200000000.0 -0.2519044635881025 0.127718225550042 5.241775896252665e-05 9.819815167839606e-05 7.6234681300061335e-06 6.912678545540863e-05 0.0015473480557559964 -0.025990181373172494
250000000.0 -0.23398308822144434 0.15614675933785113 3.903883532353741e-05 -0.00011298334628140691 5.7701892521173527e-05 -4.8808633441683625e-05 -0.0028689681979980944 -0.03007662966313564
300000000.0 -0.21186138645409883 0.17764151467037165 4.4131874600053114e-05 6.739867370093154e-05 -8.230380114008907e-05 0.0001263030857746723 -0.008765314839506027 -0.0363039783086557
350000000.0 -0.1858731918460907 0.2008462518862261 3.7308313753187532e-06 5.539911378902903e-05 1.646895782701354e-05 2.0647726421142586e-05 -0.01346880042028633 -0.039211807902824664
400000000.0 -0.16085291857607942 0.21551653047575328 5.099457980252674e-06 -3.519745798744744e-05 1.1273094484064566e-05 4.0732835534723416e-05 -0.021757518392475136 -0.04332916255841099
450000000.0 -0.13034277865987984 0.23107912492480268 -8.862523762853944e-05 2.8223308574261497e-05 -8.016624740178785e-05 2.634207759141261e-05 -0.02769029784827297 -0.04555206968119227
500000000.0 -0.10265984742877161 0.23996336582244693 -4.579894951702205e-05 -1.3623903467514926e-05 2.4461787899658587e-05 2.6464698043946175e-06 -0.037305381091579395 -0.04709237792341906
550000000.0 -0.06962889571621912 0.24478989534379128 -3.9324722056740975e-05 -2.2095909964861648e-05 -7.018947647149408e-05 -3.6021667092500854e-05 -0.04402723548309642 -0.04897991083676087
600000000.0 -0.041304625905441324 0.24657532505583263 -8.84336802531903e-05 3.566458652426918e-05 -1.8639721320635213e-05 5.32499052283176e-05 -0.053819387021202286 -0.047247386233355074
650000000.0 -0.009154044187101388 0.24233796663024404 -8.291515389555635e-05 0.0001265890034101192 -7.491306545376516e-05 5.922726620625762e-05 -0.062355387600278755 -0.0479024598943545
700000000.0 0.019012428481302406 0.2374779538830073 -0.00010221716853035655 5.3238060204013725e-05 -5.75055411595603e-05 2.818926153820543e-05 -0.0714500075399903 -0.04382228989785013
750000000.0 0.04679776874228919 0.2245863661427248 -4.452402421992852e-05 7.272021759435388e-05 -8.24327645167158e-06 -7.469680531429134e-05 -0.08121852809215746 -0.04177256107229849
800000000.0 0.07325499852212328 0.21247848779559683 3.2681739436316718e-06 0.0002168507458219122 5.713036852622547e-05 -1.0358899353678923e-05 -0.08914562951652731 -0.035601370723931096
850000000.0 0.09509634090036544 0.1926263914181897 -9.696427521847805e-07 5.913514020654286e-05 -6.831118327334467e-05 0.00015314662551135127 -0.09978802522467539 -0.03059737425674754
900000000.0 0.11740745414942981 0.1736783984582113 -4.781834875996031e-06 0.00011518003843729988 -6.72402296397717e-05 0.0001256189133455732 -0.10628858122535616 -0.0236499831610534
950000000.0 0.13145863707968442 0.14990530600920934 -4.05178833596277e-05 0.0001314963692858088 -1.9304220071626097e-05 0.0003035403662415344 -0.1159975891535803 -0.015332901410125346
1000000000.0 0.1474967767765145 0.12394210761846691 0.00010611612393333344 2.5981144710033938e-05 6.536132230223607e-06 7.116582145358075e-05 -0.12201576816809379 -0.007395192049800782
1050000000.0 0.15399438645772356 0.09890926586827258 -1.549023434163879e-05 7.924095983014206e-05 6.470220876958088e-05 0.00016840182108326566 -0.12965881505316398 0.004164648695423139
1100000000.0 0.16119173356326355 0.06960238744343442 0.0001247391068260946 0.000135331827192781 3.179596024721565e-05 0.00011201723533116406 -0.13525221615563005 0.013639438474790325
1150000000.0 0.15995334835170003 0.04419380453803812 -5.094906323440646e-05 7.187290591902684e-05 0.0001759912821206037 0.00014286852962692336 -0.14010763240716606 0.02695254407184088
1200000000.0 0.1578798052531379 0.014298453870121318 0.00023931107549733018 0.00023618505234006756 -1.7954076354321264e-05 0.00019656474518572545 -0.14489213242583554 0.03830639213128826
1250000000.0 0.1500777009967631 -0.009724596186163215 4.968200154426613e-05 7.325040923918023e-05 -1.8279584933772109e-06 3.7007823759693345e-05 -0.1463332860063007 0.052981717405245515
1300000000.0 0.1374553219345408 -0.03734872692482673 8.83117870034331e-05 0.00022399853584567124 0.00018740212024923917 0.00010677184909654774 -0.15001445519373566 0.06591415572756348
1350000000.0 0.12378105063639516 -0.05840285948283741 0.0001301714234814016 0.00010987709731250062 9.27861617170793e-05 0.0002071331818197232 -0.14874833294430648 0.08087182275374927
1400000000.0 0.10234244588682552 -0.07933951026339069 7.464495450947642e-05 0.00013695508855067492 0.0002865029001529355 0.00020711813909856606 -0.14979717705178883 0.09557403050648534
1450000000.0 0.08228520746131283 -0.09780463098466516 0.0002198698546350642 2.9235262086123475e-05 0.00011924459764081368 0.00010961472491977438 -0.14634214465479023 0.1093384217727308
1500000000.0 0.05555261651937418 -0.10899147721321557 0.0002932248365853975 7.533508334315768e-05 0.0002452140270810479 0.00018042286592272487 -0.14391605449604825 0.1260908117717832
1550000000.0 0.03032709866269242 -0.12037382722277966 0.0002308287071341081 0.00023926562820046531 0.0002673391880829097 0.0001454333221731394 -0.13841213276394487 0.13921028800395738
1600000000.0 0.0008229403762627678 -0.1224159710721766 0.00021290796241230935 4.5541639495526246e-05 0.00032538169839979375 8.853875023982686e-05 -0.13183783238293426 0.1559835036293716
1650000000.0 -0.02778586733405794 -0.12556496400932324 0.0003360688119473277 0.00018242160263376585 0.00028328434555953955 4.160587472595555e-05 -0.12526509917321293 0.1688555885004497
1700000000.0 -0.05624679843425361 -0.11802438283968524 0.0003116817808119359 0.0001477413552083565 0.0002464883179790536 0.00010535661640247618 -0.11505379456738288 0.18439745702621457
1750000000.0 -0.08590296519372713 -0.11154352359325484 0.0003586008686931266 0.00010361111157229422 0.0003058017032049097 4.947295997295154e-05 -0.10666469553528353 0.1974120461189646
1800000000.0 -0.11067616166933174 -0.09551699970609506 0.00033342120535188863 5.884728976679967e-05 0.0003308672737223932 5.572450466764281e-05 -0.09297328738942083 0.21066873442691536
1850000000.0 -0.13836225493616378 -0.07856292655149802 0.0002641395459283542 3.679591673824573e-05 0.00041624443596280413 2.4740961161308154e-05 -0.08250223127294752 0.22349271915306237
1900000000.0 -0.15767465450478246 -0.056304319446936195 0.0004569063810404301 -1.595938977470041e-05 0.00037679782952390194 -6.43380397008799e-05 -0.06653193780861949 0.23387155270712176
1950000000.0 -0.1789824759966739 -0.028218003403441064 0.00039687067342829204 1.335363553009467e-05 0.0005008151069640792 2.639644074293344e-05 -0.05241158988970916 0.24625296361838542
2000000000.0 -0.1918761030328466 -0.0022821471291904765 0.00045184983626001235 -6.922672715386969e-05 0.0004089492688053521 -0.00016632940205064261 -0.035629253118671 0.2536652827370112
2050000000.0 -0.2041808178488766 0.030908583000546087 0.0005698384510363854 -9.249477391699292e-05 0.000460154921235161 -0.00017854343880759305 -0.017799425612237005 0.26408395818096875
2100000000.0 -0.21083050368300602 0.06228494513645614 0.00044672801370243813 -0.00017565755497331553 0.00041033627598793446 -0.000255493680112795 -0.000982386355988735 0.26920610386343585
2150000000.0 -0.21166097206526682 0.09817145091157785 0.0005523908116362691 -0.00022831058799462203 0.0004722942774191164 -0.00016338541783277315 0.019138789884623992 0.27623856242706035
2200000000.0 -0.20862441077617197 0.130628622312999 0.0005094614187467243 -0.00028022846792347773 0.0004644471198860215 -0.00022978928738609617 0.03711052869932847 0.2798607445846803
2250000000.0 -0.19800813755177712 0.16669102280774553 0.0004585976193957318 -0.0003037541448742264 0.00040290953901502637 -0.0003840543801334755 0.05874416986823908 0.2824583253341002
2300000000.0 -0.1874942409267547 0.1988816561945803 0.0006110281855935052 -0.00045574227317107184 0.000458232434871827 -0.0003323909419306112 0.0780118729195848 0.2839647006773153
2350000000.0 -0.1664504861130111 0.23123593165371167 0.0003645428825428529 -0.0004757539664420576 0.0004643698674326669 -0.00040409326888972365 0.10004243700420855 0.2824609456966828
2400000000.0 -0.14680108855694543 0.2611979726037057 0.0005336801775533585 -0.0005756753189676286 0.000535518027954049 -0.0004428160829521893 0.11953984582698414 0.2813561525788557
2450000000.0 -0.11765934553040053 0.2855439325635161 0.0005207013077765436 -0.0006848870040207898 0.0003891863856879588 -0.00044794443754722906 0.1413853901105653 0.27609702011594467
2500000000.0 -0.09025089357941123 0.3107673157927123 0.00043185290878485513 -0.0006337048810739045 0.0004549725605509229 -0.0006254923238606247 0.16226601310803881 0.27198905887249053
2550000000.0 -0.05561268384525591 0.32680850375225257 0.00038440585436462965 -0.0006354325907314721 0.00038394597095794454 -0.0006236428691825443 0.18175338563827823 0.262835666140161
2600000000.0 -0.020737626800903394 0.34499433038816185 0.0003627388862677031 -0.0008573545997672264 0.0003405589995163697 -0.0008663398065688284 0.2028914814563969 0.25522604886708017
2650000000.0 0.016597003945949287 0.3528425355443553 0.00025888578091851197 -0.0008011555838518055 0.00030527445850869197 -0.0009430998620294415 0.22087070498547026 0.243763657139246
2700000000.0 0.05707583080876109 0.35969129373929226 0.00022138323298470845 -0.0008805375493698262 0.0002229618819766241 -0.0009698715529576313 0.24128699214248905 0.23161365705095696
2750000000.0 0.09387771671851217 0.3594860399408544 0.00013960431195180167 -0.0010438630887531306 0.0001334247959882674 -0.0010161532197028689 0.2578201795080324 0.2183590812359703
2800000000.0 0.13514185568976766 0.35656391161891765 5.480670828133632e-05 -0.001019494684673393 8.204291205312322e-05 -0.0011534328003723713 0.2754841353483313 0.2023366306804253
2850000000.0 0.17177245566756397 0.3483409315174468 7.967630641421994e-05 -0.0011351711771906275 0.0001523879220103051 -0.0009472036950151911 0.29028207686868024 0.1863667482728684
2900000000.0 0.2120550998108016 0.3346927760428605 -6.30386174869475e-05 -0.0010462239040162473 -0.000143528597356728 -0.0012149441237686452 0.3052630745335127 0.1674600016012122
2950000000.0 0.24684159434286712 0.31887502669428247 -0.00022100076325018246 -0.0011828990401793141 -0.00010205631227639092 -0.0012028601354652146 0.31693351731255026 0.14947774877587916
3000000000.0 0.28292989324523093 0.2940792963578287 -0.000163244499301427 -0.001118368689887342 -0.0002539529130999681 -0.0012303767212753607 0.32825880620263725 0.1276964789580962
3050000000.0 0.312434525399913 0.2719481200383237 -0.0003123120160947061 -0.0011222198960486682 -0.0003644232811463093 -0.0012690627536244116 0.337893311226384 0.10826593859306861
3100000000.0 0.34142502522907503 0.23853044821924568 -0.00044993249563610513 -0.001120542732915391 -0.00034312398765286165 -0.0011849988248120087 0.343945208230156 0.08576353596006836
3150000000.0 0.367034437095961 0.21085265181918283 -0.0005465836067494239 -0.0012673718948193655 -0.0003847897588291556 -0.001186451757431882 0.3507340395699431 0.06558638927190741
3200000000.0 0.38716183511543095 0.17188713621996093 -0.0007844307398992506 -0.001523906150894872 -0.0006459148927978161 -0.001367974115643092 0.35264018992209073 0.04409024698766843
3250000000.0 0.4072022850206985 0.13656760395165174 -0.0009496161423097712 -0.0014088235826482374 -0.0008877462437636923 -0.0014310804418094024 0.3563640522306231 0.023302799955579892
3300000000.0 0.4175848881132892 0.09703980345250865 -0.0010337207657994743 -0.0014635945698603203 -0.0008995776386917399 -0.00142834817588569 0.3561270469989672 0.0035871693884513387
3350000000.0 0.4281361732839812 0.05584675411633521 -0.0012281454575490149 -0.0013370767925498983 -0.001237988122135352 -0.0012366089317816472 0.3564739325677357 -0.017657246128803192
3400000000.0 0.4304122535510438 0.017701671822298256 -0.0014696869569730078 -0.0013708662159663948 -0.0013428825194629094 -0.0013428425722334862 0.3554301715693775 -0.03548681299872135
3450000000.0 0.43188997086697484 -0.024238830378990037 -0.0017002756235513757 -0.0013367610831350719 -0.0015364849090030623 -0.0012614350790495449 0.35293758229572514 -0.055225759113744735
3500000000.0 0.4272577878118678 -0.06345065523766483 -0.0018608262644401238 -0.0012220199298594088 -0.0018934509034931894 -0.0013229410972246352 0.35175466686469736 -0.07233898964200988
3550000000.0 0.417402387870897 -0.10464796954723174 -0.0021171456702487536 -0.0012623993996965157 -0.002081157493717102 -0.0011318311742349097 0.3491333738418721 -0.09106229265994882
3600000000.0 0.40509939709798326 -0.14156992849259523 -0.0023450356247280463 -0.0009625777922564463 -0.0024046489209782382 -0.001091728323269314 0.347906127552139 -0.10904297616394137
3650000000.0 0.38516085188248217 -0.18019116447198985 -0.002645528759247679 -0.0008824707098437526 -0.0025854823638245235 -0.0009364863101649841 0.3435085624293534 -0.12914180085424085
3700000000.0 0.3665156842681347 -0.21310404980920017 -0.0028347049468810163 -0.0007398729075530945 -0.002869287225786918 -0.000727881769481251 0.3406542617211076 -0.14920107152086526
3750000000.0 0.3381739163668797 -0.24506457170759455 -0.0030631009566937178 -0.0004387255332609293 -0.00307646850247411 -0.0005439143466970579 0.3338051463007445 -0.1689925986971325
3800000000.0 0.3122340826324186 -0.27437575713188944 -0.0032380395720060066 -0.00015086030036764718 -0.003317127511445727 -0.00018650126501873953 0.32717963942371864 -0.1910145512013807
3850000000.0 0.2785855115754667 -0.29720699553059754 -0.0035494968870838726 0.00012967376780282128 -0.0036012732655371273 0.0003026241544011793 0.31827964398735237 -0.21025715677975626
3900000000.0 0.24784037174342888 -0.3189537017018768 -0.0038718255011786266 0.0005901482777422552 -0.0038632870081895835 0.0005432985013190731 0.30723514317700074 -0.23272281046349502
3950000000.0 0.21141066533060457 -0.3346478148851596 -0.004039018356301766 0.001082826718247692 -0.0040586090546270125 0.0009682590370428685 0.2963657299078042 -0.2516254505678541
4000000000.0 0.17415939958057153 -0.34862809599121647 -0.004291493453447881 0.0014678826305417525 -0.004379940653162303 0.0014144349544202744 0.28124462240959675 -0.2712940309653725
4050000000.0 0.1375687726455512 -0.3550681708644159 -0.004439383866169693 0.0021636658263895505 -0.004495243953829202 0.002202613899026278 0.26626968851918675 -0.28940855338230487
4100000000.0 0.09852333330170249 -0.35986390892969305 -0.00452853959391036 0.0028715032805265864 -0.004478573441180819 0.0028282013446140437 0.24763287255454108 -0.3066433798429426
4150000000.0 0.06246903827388355 -0.35899710028568665 -0.00432741311142756 0.003585531108859921 -0.004375921593812115 0.0035624240828890977 0.23031564587327294 -0.3226245966779584
4200000000.0 0.02409423605575392 -0.35348548512696926 -0.004163707046005443 0.004433425815005882 -0.004188199418987492 0.004486494559454384 0.2095219776168329 -0.3371470484256177
4250000000.0 -0.009240691119120174 -0.34509076402982286 -0.0038440218441507133 0.005250421322303831 -0.003963515699686068 0.005186497046827748 0.1892365367063481 -0.3516024344960874
4300000000.0 -0.04485106656373221 -0.3304425729755032 -0.003463168501264332 0.00617046755972824 -0.0033402817413864527 0.005896277000224107 0.1669350661073068 -0.36199929073923426
4350000000.0 -0.07398235267675977 -0.3157357446612873 -0.002778542999984223 0.006944757624117373 -0.0029276689989516528 0.0068810483259933814 0.1438855172028493 -0.3734597626365154
4400000000.0 -0.10303729381430356 -0.29339761091174577 -0.0019674462950732842 0.00786125949805486 -0.001969074272050337 0.007741698162076089 0.12138164349840443 -0.3811779708089424
4450000000.0 -0.12870462464228097 -0.27273024489178566 -0.0009304118050589849 0.008546298088694707 -0.0009338744877734154 0.008539071319013013 0.09570310613200733 -0.3884448277455094
4500000000.0 -0.1492058580931447 -0.24547580031233862 0.0003153834612977653 0.009233446906966558 0.00040216802875372016 0.009182860263126638 0.07271533691320912 -0.39386548043371844
4550000000.0 -0.16949742661754608 -0.22004004891954781 0.001766052742377094 0.00949087367755635 0.0016844582086080091 0.009407324640975186 0.046747612064853616 -0.39668528712066126
4600000000.0 -0.18263114338032002 -0.19078939155452687 0.0034704853931392648 0.00952978325658535 0.00340772031179921 0.009593156168804783 0.022448712990439563 -0.39847399982913606
4650000000.0 -0.19553879741371644 -0.16097909388476314 0.00498058706035744 0.00933379842112382 0.005123296468726664 0.009433673739484378 -0.003418928171044678 -0.3976498766840225
4700000000.0 -0.20114340756665325 -0.13095827696592746 0.006814007817694413 0.008857853656795365 0.006829213614662823 0.008921077457620183 -0.027657176060609186 -0.3964125682693696
4750000000.0 -0.2062183097495497 -0.09858571160696865 0.008466422052159351 0.007991889890433021 0.008476697655204573 0.00787888221246318 -0.05210953902983054 -0.3919237983157936
4800000000.0 -0.20477329550439521 -0.06869384760676729 0.00985375360046678 0.006650469788817841 0.009829053190130072 0.006863052514571865 -0.07644793255874917 -0.3872214506942849
4850000000.0 -0.20002843900834383 -0.03596213823511711 0.011112258637348322 0.005268076154923108 0.011068428715924901 0.005188022430023718 -0.09956850313819982 -0.379421904378092
4900000000.0 -0.19071155265291467 -0.007560863403973221 0.011976737105956287 0.003402931976160223 0.011897376085599097 0.0035204652539989 -0.12274087919431446 -0.3717141800159472
4950000000.0 -0.1765831127128948 0.022558682109444603 0.01251283053043708 0.0015006468816449571 0.012616980319378522 0.0015046345316329804 -0.14435469043538138 -0.36089610331230926
5000000000.0 -0.15939094728636208 0.04774614329698139 0.012712149870687852 -0.00032422565173260916 0.01260296212514837 -0.0004373246238859901 -0.16681549757041986 -0.3492060883635982
5050000000.0 -0.13543836353537403 0.07141303197827688 0.012605210694825198 -0.002407935253518348 0.012582816599352509 -0.0024035790957320203 -0.18632543076268582 -0.33747504872181733
5100000000.0 -0.11141431988118813 0.090570378179429 0.012113300564406777 -0.004129174764970185 0.012018186239459546 -0.00404771206030544 -0.20614868512389212 -0.32293876745462363
5150000000.0 -0.08094149986251446 0.10425459538840307 0.011290478928049229 -0.005759076608195362 0.011362595011576878 -0.005678688741399041 -0.22386075366658248 -0.30852883327397457
5200000000.0 -0.05131729205574326 0.1146067163379925 0.01060466971284642 -0.007232308305994784 0.010563704135232421 -0.0071320994833065435 -0.24117916331657066 -0.29140041701141606
5250000000.0 -0.01685055657895708 0.11644773211793089 0.009549104144482094 -0.008524692837893085 0.009396695715933276 -0.008666526872899342 -0.2575025251171143 -0.27499391233263104
5300000000.0 0.014866714921195026 0.11639192998776615 0.008181763883796617 -0.009703800308851544 0.00810074565306518 -0.009661788959640958 -0.2710578751409523 -0.25640915931119945
5350000000.0 0.04652774752807209 0.10674862731872649 0.006644721982910151 -0.010600393001817166 0.006523445985663724 -0.010698869576838162 -0.28552605930697644 -0.23758759509812702
5400000000.0 0.0778904540784659 0.09398806851929795 0.005340454138460747 -0.011306136889083405 0.005251322006452848 -0.01129828003975511 -0.29604900980557813 -0.21881967895935953
5450000000.0 0.10479055140636752 0.07386657434690265 0.0038002156858104623 -0.011981299653773547 0.0037167610469236107 -0.011791297723069576 -0.306708675658003 -0.1985781442891059
5500000000.0 0.12958659730717342 0.050902482034607135 0.0021678045788153396 -0.012142755488138137 0.0023271289926116694 -0.012126937996873926 -0.3153049215777961 -0.17780675406001933
5550000000.0 0.14741060985994578 0.021190219217386973 0.0007324254519252333 -0.012287768134037286 0.0006864801953721077 -0.01215036199953842 -0.32322163612186144 -0.15702582487107306
5600000000.0 0.16396735399418183 -0.01028308735271434 -0.0007391798024536599 -0.012136156481178197 -0.0008302250765735673 -0.012107671701091062 -0.32873715835230305 -0.13612115052238752
5650000000.0 0.17075483721313325 -0.04391223986880408 -0.002040068594338028 -0.011796023562044351 -0.0022613325138423376 -0.011782097864985451 -0.33353771790828574 -0.11444044082469844
5700000000.0 0.174401886614138 -0.081779735597352 -0.003340978913220339 -0.011360117195714937 -0.0035101599056083137 -0.011384205256883285 -0.3364821369168183 -0.09398606020236079
5750000000.0 0.17226202171705313 -0.11659071917914585 -0.0046816661262161115 -0.010948277916761924 -0.004619724213975542 -0.01101747057985444 -0.33803603996379306 -0.07207083252987513
5800000000.0 0.16205675813678194 -0.15466495658630633 -0.00596681872645625 -0.01013809655479869 -0.0059442128702236665 -0.010211011151147403 -0.3387099587952817 -0.05231034755195322
5850000000.0 0.14744385119833484 -0.18856875744410925 -0.007108363230604162 -0.009521555338736063 -0.0071431909535059675 -0.009425019382922084 -0.33719008299241227 -0.031295869719539744
5900000000.0 0.12461908112154807 -0.22240011788407613 -0.008150006135095323 -0.008395729763809794 -0.008201082330845358 -0.008475145001764144 -0.33555599906016986 -0.011164769757533395
5950000000.0 0.09965983629809938 -0.24986035825178635 -0.009107640857233104 -0.007279146605081147 -0.009089184616872036 -0.007432675480886384 -0.3309731569026357 0.008473155414974324
6000000000.0 0.06559658681950001 -0.27486984027710115 -0.009932931306744724 -0.005795824588171501 -0.009730547839366823 -0.00580204104708662 -0.32636392772505773 0.02869044058935157
