! Created with skrf 2.0.0 (http://scikit-rf.org).
# Hz S RI R 50.0 
!freq ReS11 ImS11 ReS21 ImS21 ReS12 ImS12 ReS22 ImS22
100000000.0 -0.5586979581045002 0.16492675823496866 -0.00011394159335879424 0.00036925372387588604 -3.8804431537956326e-05 0.0003535366884294329 0.008375370954641019 -0.013698580349475036
150000000.0 -0.5296252710053879 0.24280670835310186 6.493933837860459e-05 0.0005663545434084178 7.336684016386299e-05 0.0006151099424267747 0.004925967252893385 -0.01858904080318159
200000000.0 -0.48672619194822053 0.30939198406965696 0.00010790863332822611 0.0007754554059748284 9.890742517980341e-05 0.0008156321208360767 0.0015280810821870913 -0.02605197467977037
250000000.0 -0.4380559707698979 0.37474435814180296 0.00029298260689483935 0.001057692890434908 0.0003113871886180558 0.0009309574855954983 -0.0028320322892243515 -0.03001139927438461
300000000.0 -0.3785035271462046 0.4266137667908485 0.0004806954298170907 0.001070215735497455 0.0005396482708113522 0.001210431360457417 -0.00875788765796492 -0.03626610285029531
350000000.0 -0.31104023809134607 0.47562309671097636 0.0005939696142936543 0.0012951751331678435 0.0007331431542545964 0.0013531636092693493 -0.013470410473045105 -0.039191628403422
400000000.0 -0.24089119756720292 0.5088742355201404 0.0009288519463139256 0.0014660256504514697 0.0008668205755433609 0.0014527611830204394 -0.021854677174850814 -0.04338581478711302
450000000.0 -0.16194656401705004 0.5359770268223394 0.0011648156802140082 0.0014646207344118283 0.0011994918713539387 0.0014977956693228783 -0.027559347125101923 -0.0456155437891358
500000000.0 -0.08426315110269725 0.5491564521241773 0.0014933849172544906 0.0016257838454062758 0.0014773874797513842 0.0016024684759497131 -0.03728344132689997 -0.04722512749081374
550000000.0 -0.001010366785199713 0.5492607214745066 0.0017816272231933699 0.001643369694406456 0.0018409335580672097 0.0017500535192461288 -0.043985757748548265 -0.048941746858388965
600000000.0 0.07742292265875028 0.5400751498763289 0.002119415967151591 0.0017781761956336933 0.002254544958000752 0.0017010277076570494 -0.053881466595366606 -0.04716057791622554
650000000.0 0.15672159362169727 0.5145574938148317 0.0025735680840274517 0.0017156556866742233 0.002553123035074055 0.001713323414543375 -0.06245714449254151 -0.047822430202258126
700000000.0 0.23068696787867007 0.4822731916590289 0.003092347091284048 0.0015563876674503897 0.0030536979531970167 0.0015497748812818095 -0.07151991138222827 -0.04370840453473144
750000000.0 0.2975515535210734 0.4332469241407965 0.003538827771699276 0.0013305856653260683 0.0035695613469237473 0.0015020456602087046 -0.08127297060950045 -0.04180120433045289
800000000.0 0.35888491549909846 0.37941266283294506 0.003956904922010552 0.00109510531797532 0.004031169736591835 0.0010895545828352306 -0.0891205299279633 -0.03552229822811814
850000000.0 0.4061218698545045 0.31152191526690703 0.004399839196858051 0.000807223790581957 0.004515599148732318 0.0007735497648448003 -0.0997771998078453 -0.03052365243746634
900000000.0 0.447824397871956 0.2404515408625791 0.004841085010040885 0.0003223498363603425 0.004796683045160354 0.00029942088866031006 -0.10640646868880074 -0.023421785681305145
950000000.0 0.47023717483089833 0.16240315844267675 0.005202005102146578 -0.00033801289131063766 0.005175785466170192 -0.0003633580765158758 -0.11601054761273405 -0.015319764634722111
1000000000.0 0.4875889518772631 0.08190815645694723 0.005405674431159378 -0.0009460623082963036 0.005320068902163931 -0.0009781322513259536 -0.12200999079411981 -0.007376050082310346
1050000000.0 0.48643306647628287 0.002314490864661579 0.005481315502436643 -0.0016542877137702494 0.005461101910824764 -0.001549590786533989 -0.1297612356950158 0.004062525356450536
1100000000.0 0.47793598007659627 -0.08005151801098394 0.005422115017575368 -0.002314587110788339 0.005359501863112255 -0.0021331461139642784 -0.1352529491323454 0.013609412795078208
1150000000.0 0.4526503836106764 -0.15736897399446567 0.005509862710501505 -0.00281206195290855 0.005416954961867393 -0.0028537848211606705 -0.1400618355960406 0.02706001915343518
1200000000.0 0.41807829225107596 -0.23516912843184312 0.0054848259378242155 -0.003530936486584512 0.0053236228816871565 -0.0033897619349304324 -0.14489151127136177 0.03837853428819747
1250000000.0 0.3681169529108274 -0.30346922118795033 0.005382812037981846 -0.004260166886097208 0.005361161574335421 -0.004221746516568526 -0.1461621510327403 0.0528790606060585
1300000000.0 0.3070676409424494 -0.36658028390782144 0.005038747247481485 -0.004914635198172891 0.005109789584254217 -0.004969055975836593 -0.1499470282757842 0.0658821791008392
1350000000.0 0.23641061918433348 -0.4160658239654818 0.004924023918575896 -0.005557876416016283 0.004887191116339368 -0.005704826896327675 -0.1487520652319098 0.08065682628013297
1400000000.0 0.15555523512594469 -0.45447464200618665 0.004616722013465941 -0.006373188188010153 0.0044680645856902375 -0.006385137941952206 -0.14969357544497583 0.09545918421741112
1450000000.0 0.07050724264849954 -0.4796584710538665 0.004001299370513541 -0.007155120896188929 0.003917314957362673 -0.007033125534019837 -0.1459540027201193 0.10931789384071139
1500000000.0 -0.01933324278045344 -0.48625487003534595 0.003360589415295321 -0.007882850663358535 0.0033578732387039177 -0.007804786173830492 -0.1435919201096507 0.1259398616363393
1550000000.0 -0.10828457483897255 -0.48123285704524565 0.0026381964714029585 -0.00848248712648043 0.00266635556310708 -0.008387875347099165 -0.13819039012176512 0.1392981853691166
1600000000.0 -0.196885310475193 -0.45587308147985806 0.0019297109131914177 -0.00902614547162339 0.0018501312999789474 -0.009220772927047314 -0.13179616829679316 0.15595231295159445
1650000000.0 -0.2787453312845063 -0.4216414936607124 0.0008978567244597343 -0.009524775724893929 0.0009205097159161248 -0.009510331778519747 -0.1250649024638378 0.16888703921882597
1700000000.0 -0.35320267651592013 -0.3668704807200375 -0.00014621144227202346 -0.01001956498200546 -2.160644950891083e-05 -0.009934477910801398 -0.11503808934321387 0.18428220192498046
1750000000.0 -0.41920971058534484 -0.3082029668424428 -0.001145088355684937 -0.010128216673200699 -0.0011091907897458864 -0.01015463650339951 -0.1065793896383492 0.19730028947716668
1800000000.0 -0.4701271035960639 -0.2313632389955524 -0.002368486505074846 -0.010252234516017962 -0.002391848786459531 -0.010229035846238063 -0.09308892655654154 0.21047960099072263
1850000000.0 -0.5130235303785523 -0.15519040759963265 -0.003443761189567324 -0.010151883496708584 -0.00344602254006655 -0.010217936752170032 -0.08217988045180867 0.22331329608925873
1900000000.0 -0.5365487805340194 -0.06820853767370035 -0.0045820723541205415 -0.010235932848774259 -0.0045552669107724935 -0.010178965717631577 -0.06661268385703424 0.2339184642501917
1950000000.0 -0.5527189046253913 0.020643794706762794 -0.005751875947054453 -0.009957315491671639 -0.005671300025496437 -0.009926030370160401 -0.052233846467377214 0.24622141246275486
2000000000.0 -0.5473576996034003 0.1051578728979162 -0.0068644558787552745 -0.009377468615394279 -0.0067338079557031335 -0.0094315024599025 -0.035725349766907846 0.2535637596310643
2050000000.0 -0.5355403788670671 0.19130721208972323 -0.008058654548889762 -0.008955174377661858 -0.007966405544680921 -0.00902382736291296 -0.01778118166105794 0.2639524506977786
2100000000.0 -0.506729691727827 0.27070287252253983 -0.009192135993118373 -0.00806007454035077 -0.008999940733980846 -0.008175638978214736 -0.0007389891485297731 0.26900671258739156
2150000000.0 -0.4706288923917829 0.34613433712662595 -0.009915584107909695 -0.0073932461263523245 -0.009978783584211654 -0.007456824372046615 0.01886794745386739 0.27583768707112327
2200000000.0 -0.42074556240859645 0.4129745698802085 -0.010916122650404177 -0.0065185477479359835 -0.010948668788267592 -0.0065338891159473275 0.03715895223988699 0.2798887332617363
2250000000.0 -0.360371161973408 0.47474342324971675 -0.011725723447635011 -0.005348425296301567 -0.01177574375921626 -0.005452520740875988 0.058600679009713386 0.28246721091895716
2300000000.0 -0.29977687543576736 0.5218657816465269 -0.012392661261227615 -0.004227725118792165 -0.012512665328117555 -0.004203777870508201 0.07798081071507722 0.2839211371512917
2350000000.0 -0.22678728896671863 0.5624268238820158 -0.013029804693598067 -0.0029736611353317487 -0.012883254660740754 -0.003045781127241824 0.0998849207991434 0.2823259507982625
2400000000.0 -0.15756770464050354 0.5929442538326473 -0.013327932882648537 -0.001965638438014816 -0.013230648932506483 -0.0019878018471786783 0.1194681134190817 0.28124240386951854
2450000000.0 -0.07736750160718653 0.6094281957805974 -0.013570820872533666 -0.0007531318926239283 -0.01353242067413805 -0.0008492931531479435 0.14120091668770812 0.27614702420879955
2500000000.0 -0.0053108793126255185 0.6215836333155978 -0.01401266225001763 0.00037390056599867434 -0.013923130557723967 0.0003031656125551888 0.1620351958197975 0.27191516369294144
2550000000.0 0.07378216050499246 0.6154035624224831 -0.014356601703153843 0.0019021585384325355 -0.014285573022898386 0.0017625622531468876 0.1817364606976235 0.2628951732574903
2600000000.0 0.14659864699969952 0.610083108913687 -0.014303980272570243 0.0032119036992196105 -0.0143227313166026 0.0031903896723188326 0.20269388823234658 0.2549905152883701
2650000000.0 0.2191826359054719 0.5845250239386691 -0.01402864574038436 0.004644108790154738 -0.014154239362296392 0.004716117741322256 0.22069014627468225 0.2435219350535167
2700000000.0 0.28888177891537564 0.5576554714155204 -0.013932173550313265 0.006118241987619137 -0.013833266715883938 0.006034863439097048 0.24122506048898198 0.2313978249252198
2750000000.0 0.3460367108546356 0.5175158622997069 -0.01347453850756403 0.007544070612255173 -0.013373556221523263 0.007616474967586731 0.2576800197755128 0.21834118682990714
2800000000.0 0.4039767007589619 0.4781610780271281 -0.012795655037023458 0.00886245964414708 -0.01287689545038805 0.008909783459743135 0.2752604200792662 0.20209760258678106
2850000000.0 0.45101369312089756 0.4281115033610582 -0.012382082444882961 0.010188490234092913 -0.012134968758703561 0.01020332235529354 0.2900528152512561 0.18640926031107427
2900000000.0 0.49722574932365604 0.37381133828619695 -0.01123415110539264 0.011344786455952785 -0.011222617549167781 0.01126526128685839 0.3050850484353616 0.16723844991151673
2950000000.0 0.5325255062744605 0.31804502865685086 -0.010491913034451447 0.012302330779256786 -0.010462281335501476 0.012431437512845388 0.3166057971626427 0.14959988651914366
3000000000.0 0.5644848030848031 0.25067713959344184 -0.009543068710375541 0.013307117619787217 -0.009581133172374197 0.013381497584784205 0.3280911125485189 0.12767053303205322
3050000000.0 0.5835758715552933 0.19181484741894625 -0.008712246110937868 0.014337330904689806 -0.008756981295694886 0.014394105856030579 0.3376067336260657 0.10832827877475176
3100000000.0 0.5970767823317019 0.11771229107395409 -0.007696827357024741 0.015450134861450865 -0.007535345706122237 0.015554981978431874 0.343766914150099 0.08588342609754315
3150000000.0 0.6028623027919552 0.05738581330312207 -0.006423702562152471 0.01660167439008695 -0.006390923047132229 0.016613904329287676 0.3503102973247982 0.06561168681201199
3200000000.0 0.5952564669619635 -0.016850899626226344 -0.0048211395946720975 0.017698360836351987 -0.004989481639726895 0.01762366535483276 0.35239623171670587 0.04414949240288426
3250000000.0 0.5870538794856661 -0.07961128246641488 -0.0034428570610656626 0.01852638831441608 -0.00340001616236963 0.018618013440666267 0.35633531005865343 0.023554995950770312
3300000000.0 0.5610595867138705 -0.1421879201908833 -0.0015608266391871196 0.018660097262291925 -0.0016937634849883828 0.0186526319564375 0.3561082607851766 0.003640363246437653
3350000000.0 0.5386987535215212 -0.2021437903032192 -0.0004197585580204247 0.01961989691916177 -0.0003115557930374749 0.019581225534386452 0.3563281460748595 -0.017446484642480525
3400000000.0 0.5010385639366701 -0.25592000446060315 0.0015451569702783709 0.020149720432444663 0.0013982476600587395 0.020242152789832445 0.35525646723357823 -0.03521909923758602
3450000000.0 0.4624610651768455 -0.30794481176668265 0.003411125736017221 0.020533116153675295 0.003528469452952882 0.02064273390080509 0.3529131412231899 -0.055225169271702616
3500000000.0 0.4128503354523097 -0.3505902427206748 0.005437193462660045 0.02072292220371229 0.005377382861028585 0.02070249552267656 0.351695987528528 -0.07219126832205644
3550000000.0 0.3602440823209185 -0.38981072545013584 0.00744006084969666 0.020874081482281655 0.007338224280930963 0.020939007849822836 0.34909364921618774 -0.0909280144716388
3600000000.0 0.3024064545608517 -0.4166104389624629 0.009651658890912093 0.020749267474615207 0.009634270101602628 0.020772725273616725 0.34763702469484553 -0.10877278308169266
3650000000.0 0.23858902958444517 -0.4384551097434139 0.012088510083328051 0.020359012084230865 0.012103550289656952 0.020295374554257183 0.3432760595028587 -0.12875106092791347
3700000000.0 0.17981251485860936 -0.4490002040776329 0.01448940863330606 0.019729070363971136 0.01440980894326751 0.019673676152237946 0.3403013008020511 -0.1489253367763044
3750000000.0 0.1118524968652208 -0.4505725372308639 0.017003356131800203 0.018736076874893648 0.016908914448169273 0.01878978060467896 0.33348926585457217 -0.1688222018086343
3800000000.0 0.05240073171973765 -0.4443222361264327 0.019414356254515923 0.017631141003420402 0.019309261112875738 0.017502068963263527 0.326949185528028 -0.19078351299152885
3850000000.0 -0.00942690274411783 -0.4235973020042093 0.021810440895083036 0.015802470776263955 0.02172511746945673 0.015929920825393795 0.31807319855362587 -0.2098795212212042
3900000000.0 -0.06208276154575613 -0.40201317106181744 0.023864645587778174 0.014155980941136233 0.023821397310979618 0.014067902275649666 0.3068506916780724 -0.23206018892979596
3950000000.0 -0.11533717632462957 -0.3638606249125483 0.026072202907724256 0.01177779356639655 0.025830163640775596 0.01187000508016919 0.2960681373254588 -0.2510585499250729
4000000000.0 -0.16029202229575096 -0.32366176057704454 0.027950138361714113 0.00957731481992604 0.027875700788818 0.00942312159580335 0.2811078541791458 -0.27054940182967563
4050000000.0 -0.19446216081499418 -0.27236026366910293 0.029674930528906133 0.0065233308792599035 0.02975399137378997 0.006472473819659039 0.26620992449408654 -0.28851551667638625
4100000000.0 -0.22320953075131186 -0.21938253452056006 0.03133064935954088 0.003356611267020001 0.031220552490239833 0.0034933230374544696 0.24777220077292125 -0.30583870890908044
4150000000.0 -0.23656364776445002 -0.16040174814138985 0.03227083043979996 -8.780346210879363e-05 0.03221406798746563 -5.873169948430795e-05 0.2305740368082147 -0.32185381172997574
4200000000.0 -0.2427923227944702 -0.10063976853744724 0.03280665055141047 -0.0038183983038915723 0.03278350240711475 -0.0037837766151932613 0.2100033450882115 -0.3361819481611608
4250000000.0 -0.2337965247391077 -0.04322062243496777 0.03314213280771895 -0.007461728516868696 0.0330592349375629 -0.00755800272873427 0.18944882836589172 -0.3506275680046165
4300000000.0 -0.2170268615643998 0.014365875361620914 0.03290560754604027 -0.011468123727387425 0.03293527103374064 -0.011478274496982683 0.16769764656390773 -0.36102712885391397
4350000000.0 -0.18678578104002627 0.06250320188040641 0.0322305117051565 -0.015391596982614936 0.03213605959495386 -0.015327365917970636 0.14474948800002957 -0.37280782808079743
4400000000.0 -0.14681692231777246 0.10812156929177384 0.030713029675288224 -0.019491044894758888 0.030791753977786857 -0.019516599926883992 0.12248784911377629 -0.3802268317040904
4450000000.0 -0.10168108876507823 0.1401109822634363 0.02914363956902906 -0.023322988007708392 0.02908128205672531 -0.023395539191935186 0.09671955063498854 -0.38770538811405314
4500000000.0 -0.04806748928711701 0.16526222862860093 0.02684481222499642 -0.027019043492580296 0.02673919916312601 -0.026940944888896586 0.0741875287842645 -0.39323067990254446
4550000000.0 0.006725089539018707 0.17514617572077254 0.023868729943582672 -0.030346903131179437 0.0239320178232663 -0.030409603997370395 0.04840692288533236 -0.39644769035609223
4600000000.0 0.06637048742429227 0.1743041208044952 0.020760651544709116 -0.03346058045658019 0.020648417365247727 -0.03361404811523612 0.024037098626037513 -0.39858273656683735
4650000000.0 0.12061304478291934 0.16186368374808893 0.017042545062239088 -0.036182131879366475 0.017012040243582376 -0.03611675569900742 -0.0014846107360159222 -0.39801925128184135
4700000000.0 0.17439298962714705 0.13582486880197947 0.012930459127703638 -0.03844371203546096 0.012865174359586567 -0.03833553151201659 -0.025872824073113896 -0.39700553741918954
4750000000.0 0.21872028699664603 0.10183956756420807 0.008568783477618205 -0.040201501380176724 0.008554566193376887 -0.04018034163106581 -0.05048081604891886 -0.3926746552021176
4800000000.0 0.2564393477456058 0.05671060564091654 0.004060837321459506 -0.04121845115348743 0.0040608304875646515 -0.04103566155441351 -0.07485605580017272 -0.38842527037583646
4850000000.0 0.2850717712169963 0.007807222867856077 -0.000615656520531381 -0.041869153129797686 -0.0005754531577844138 -0.041891224823906816 -0.09827310037713394 -0.38091802067890584
4900000000.0 0.30317210635085695 -0.04920705466767019 -0.0051980829994076015 -0.04186289357058439 -0.005309954589813085 -0.04181702487071146 -0.12134598683561908 -0.3735512677268419
4950000000.0 0.3103163416921863 -0.10723882748354166 -0.01016598292598827 -0.04169515181297249 -0.010131820630326131 -0.04146992821012951 -0.14344231984861078 -0.3630760390760919
5000000000.0 0.3051660701829078 -0.16672745646111342 -0.01464201664831952 -0.04041114803418829 -0.014664029707031739 -0.04043937123333338 -0.16621229528239684 -0.35166521108291987
5050000000.0 0.2914539720855186 -0.224269667965408 -0.019177075422504637 -0.03899508452422151 -0.019079530029199227 -0.03896018290928463 -0.1859791577784988 -0.3397229828440103
5100000000.0 0.2644402144471871 -0.27911382331909623 -0.02349033957883651 -0.03710405924619666 -0.023319246012879817 -0.037027204606373994 -0.20605202923395619 -0.3251713329276119
5150000000.0 0.23078637815521896 -0.32899964227072276 -0.02745175770339347 -0.03473915437789265 -0.027273335576600652 -0.03460480553432519 -0.22428452343978145 -0.31064112834653207
5200000000.0 0.18673115735474147 -0.37183189065024236 -0.031240725000436318 -0.03195055807096714 -0.031227600168016227 -0.03184049903700367 -0.24172850557703668 -0.2936530680880202
5250000000.0 0.1385257939514094 -0.4085358993331152 -0.03483922032479546 -0.028963964615990764 -0.034898931420979384 -0.028809921453958394 -0.25867805752921874 -0.27755200551765163
5300000000.0 0.07986770946979535 -0.43386976040849 -0.03813370563741926 -0.02518307114436058 -0.03816557984603703 -0.025197134868698318 -0.2721784404803031 -0.25831394475184716
5350000000.0 0.01902010790757097 -0.45184154969347184 -0.04091332208949989 -0.021224513806617246 -0.041073356783862314 -0.021271159743888317 -0.2869987403225269 -0.23959213658452486
5400000000.0 -0.042906832963908285 -0.45833012121974576 -0.04350121809596452 -0.01710178231269824 -0.04365994034767832 -0.017102331721554613 -0.29764434214986757 -0.22040041666320384
5450000000.0 -0.10643053215462213 -0.45602161416930764 -0.04580183973752113 -0.012596935360307033 -0.04573158724103673 -0.012611826771920943 -0.3090316934737786 -0.19999220931757103
5500000000.0 -0.16840809561620315 -0.44119910742779306 -0.04758315952940478 -0.007714545521882325 -0.047483622090576154 -0.007797054985723011 -0.3171637575274267 -0.17913763861263782
5550000000.0 -0.2289641027950514 -0.4192014418797587 -0.048788292410510824 -0.00263420031324175 -0.048753775366059626 -0.002528358497237502 -0.32551738945138464 -0.15794767455839986
5600000000.0 -0.281159114057755 -0.38604140922021046 -0.049378389931578066 0.0028871035198026994 -0.04929447169341867 0.0028757888751560134 -0.33127329119029225 -0.1368378140882442
5650000000.0 -0.33102619949750983 -0.34661203658296424 -0.04927545432269619 0.008421319147075158 -0.0492934026399345 0.008210362554744915 -0.3363089503011931 -0.11441164814109393
5700000000.0 -0.3724794681901099 -0.3013395048927612 -0.04876051603277778 0.013480819596082915 -0.04871440889116098 0.013464266809519315 -0.33917487213298736 -0.09427507296092094
5750000000.0 -0.40735485136244254 -0.2474016803026972 -0.04792201820257709 0.01907570887769884 -0.04790019762305417 0.01909672046120207 -0.3406283235468719 -0.07166082799423394
5800000000.0 -0.433590218765099 -0.1920710413218612 -0.04641265384113057 0.024672580852099696 -0.04631053168557126 0.024726046698195538 -0.3415637092699686 -0.051765337911941704
5850000000.0 -0.4490897132867923 -0.12892963977839447 -0.04418691956890402 0.030796159401769673 -0.044165563826487855 0.03070456835993999 -0.33983692358754986 -0.030202551688937297
5900000000.0 -0.4532018177060051 -0.06908307630973962 -0.040533334895524964 0.03677543457629745 -0.04060390285114895 0.036754888810420216 -0.3383814976793321 -0.0097331744058683
5950000000.0 -0.4447279634422071 -0.008794813248495258 -0.03556011049573455 0.04223799259587628 -0.03551606399007859 0.04212632974754487 -0.33333147881872727 0.010214240247128732
6000000000.0 -0.4307147550106971 0.04235070342512308 -0.029496937113512756 0.04627315859464401 -0.029481412585092664 0.0461755496316881 -0.3282696929992562 0.031013904856935646
