! Created with skrf 2.0.0 (http://scikit-rf.org).
# Hz S RI R 50.0 
!freq ReS11 ImS11 ReS21 ImS21 ReS12 ImS12 ReS22 ImS22
100000000.0 0.9697985212399685 -0.15159033890949006 8.588305602154194e-05 6.371042822715316e-05 1.2272641109894164e-05 -3.819402699816904e-05 0.008342597898913095 -0.013592570699245257
150000000.0 0.9405069029416225 -0.22132244964964992 1.2263953466016504e-05 -3.7334044395284126e-05 4.169935831521223e-06 -9.932403848373932e-06 0.004903304771815973 -0.018585460270817623
200000000.0 0.931627359383083 -0.29729279592900115 3.4102405526987444e-05 -9.512268492581165e-05 4.619181489874106e-05 -6.565304455449214e-05 0.0015182382041659854 -0.02597262110609075
250000000.0 0.8967183196971721 -0.36029438892786525 -9.585778072242973e-05 9.633528498755916e-07 0.00013846673632947145 1.4991792949949694e-05 -0.002920458018688732 -0.03012126618797376
300000000.0 0.872110243467906 -0.4331296456742012 -1.6266024045295438e-05 0.0001358913771985695 1.2935463374252198e-05 0.00010534284622487917 -0.008686090132476227 -0.03623800329123083
350000000.0 0.8357697749308551 -0.49457190024751807 5.226828381358948e-05 3.525590466405923e-05 -5.269803291667509e-05 3.1118735399249766e-05 -0.013509716912098693 -0.03917879785454045
400000000.0 0.7913237502139691 -0.5575071106416266 0.00011076842732901823 8.650871060979232e-05 4.4848527920468274e-05 -8.218138735259834e-05 -0.021834583392127356 -0.04334764214454724
450000000.0 0.7525805716253863 -0.6126600344939794 -3.226392016151995e-05 -4.034676551644731e-05 -1.109738609405561e-05 -8.975408817145836e-05 -0.027620572642561812 -0.04563762474846036
500000000.0 0.6925030417174247 -0.6678716105741871 -2.3298553033763637e-05 -6.886765501526981e-05 4.155212916080693e-05 -0.00011085424360902566 -0.03718405383908625 -0.04715626026353238
550000000.0 0.6513011617661985 -0.7226103707004592 -1.932955324161466e-05 -4.070897017181482e-05 -5.189408764472844e-06 4.3239710341966424e-05 -0.04400481759705219 -0.0488851427814832
600000000.0 0.5823575712983174 -0.761316462172703 0.00010408088229881689 -8.363652018568323e-05 1.9389979646211205e-05 -6.211546579636019e-06 -0.05401165222926768 -0.04715848390123842
650000000.0 0.5342025798144704 -0.8119688936948168 -5.0025806380921275e-05 4.4706120714327316e-05 5.702226177158085e-07 1.7646230375248968e-06 -0.06243015725042928 -0.047851724745910436
700000000.0 0.4601180030013839 -0.8381350560429291 -8.35192133085797e-05 -1.053469763670511e-05 8.101664908403635e-05 -0.00011572043771166091 -0.07150941500410123 -0.04358470447556107
750000000.0 0.40187002226041374 -0.881918430567566 -7.831368508863844e-06 1.3063642155819328e-05 -1.237240582607022e-05 -1.5828840907709383e-05 -0.08106765102485425 -0.04168648990531084
800000000.0 0.32917460812770155 -0.8973437797716917 -9.545788260063776e-05 -1.996623173695861e-05 -5.337836256476363e-05 -0.00013550325576272893 -0.089031754323438 -0.03548245455602987
850000000.0 0.2636473781012001 -0.9292350345638195 -3.841806051761642e-05 6.72801750859283e-05 -5.967568633178234e-05 4.7688608293811204e-05 -0.09973393084245133 -0.030671848277657295
900000000.0 0.19065407083293723 -0.9374873987286148 -1.6328462381387163e-05 -8.634730647692326e-05 -5.451242027084337e-05 -1.0474626413005556e-05 -0.10629033090900195 -0.023508913002006783
950000000.0 0.11662547467672245 -0.9542075928036622 -6.708017929858964e-05 5.3246745759552485e-05 2.0011482367117205e-05 -5.282803849631993e-05 -0.1159834133773309 -0.015319056623629968
1000000000.0 0.04649272788225048 -0.958847861604287 6.407748470544154e-05 -7.100742817063979e-06 -6.432922356152566e-05 8.212082551494868e-06 -0.1219756721260991 -0.007363500936625956
1050000000.0 -0.03228001178430563 -0.955397566911994 1.3180619477330888e-05 -5.5799742570873984e-05 8.576797454292476e-05 7.122870845336238e-05 -0.12964500937032392 0.004182686389111741
1100000000.0 -0.09856047779901561 -0.9543616821185714 3.670694120267245e-07 -2.0719751656519978e-05 -1.8832539984918903e-05 -2.234044218581373e-06 -0.13515632094288382 0.013695942690148292
1150000000.0 -0.17668323635766425 -0.9355146991503593 -4.108590362334289e-05 7.213100334462283e-05 6.699143884767137e-05 -3.946228127309438e-05 -0.1400107839646716 0.02703188857127233
1200000000.0 -0.24155866585118105 -0.9264289152659624 -1.1788539158387962e-05 -2.3698254919159423e-05 8.984729717814934e-05 6.84279205808673e-05 -0.1445967485304696 0.03807361631612676
1250000000.0 -0.3165178672695433 -0.8935270156019816 -4.860182130405841e-05 4.998130216044566e-05 -2.8984062396533438e-05 2.0479547039654147e-05 -0.14628775545893924 0.05283690444066781
1300000000.0 -0.38247677728142376 -0.8780254845461263 -1.493045542264189e-05 7.643912959094359e-05 3.10950222711935e-05 3.995009584933453e-05 -0.14974634199443965 0.06579939929222926
1350000000.0 -0.44733468963331974 -0.8337014850639246 8.653845568267245e-05 1.0486127709752146e-05 -8.061620784263003e-05 -3.0184479444249734e-06 -0.14867561560667023 0.08071850245722875
1400000000.0 -0.5111161531845776 -0.8056272963431906 -7.951293894110531e-05 1.5130396940305453e-05 4.968129372970203e-05 -3.7734119087607886e-05 -0.14966272390893123 0.09542493226350122
1450000000.0 -0.5693797163743073 -0.7577743095940901 1.7688650701366013e-05 -6.700503925596745e-05 5.6832991641271526e-05 -8.009768419173009e-06 -0.14613867976305056 0.10924111203260996
1500000000.0 -0.6249866404618083 -0.7161149127468669 6.492931123550041e-05 -5.8587332998652565e-05 -5.955977747908055e-05 0.0001771159075722692 -0.14373188812746565 0.12570908886753895
1550000000.0 -0.6761565395721171 -0.663563033731298 5.0222371281340614e-05 9.772628193880534e-05 -2.3432788533503316e-05 1.3047397845965077e-05 -0.1382559499969018 0.13916668454696426
1600000000.0 -0.7255626400035745 -0.6080916096752018 3.880665838113603e-05 6.660761401338952e-05 2.3391958544219062e-05 4.7158687279403065e-05 -0.1318954801683561 0.15569428471054503
1650000000.0 -0.7681865056301959 -0.5536213416303792 1.6848104114373114e-05 0.00011413629084744732 -4.2414719611789635e-05 8.187656942587505e-05 -0.1251683156031823 0.1686389362533135
1700000000.0 -0.8076916268871629 -0.4877494648517767 1.4762139859529308e-05 0.0001155761961216248 8.330857320500762e-05 0.00022484356957510755 -0.11503706853809546 0.18425697872094984
1750000000.0 -0.8423453315611195 -0.4306757413156169 5.8476709751883134e-05 2.9792088907250135e-05 1.9971735387722948e-05 2.2056518843087523e-05 -0.10674026536270928 0.19702128023999038
1800000000.0 -0.8695729437738652 -0.35710746730142057 -1.816252103599737e-05 -4.651033099636958e-06 -5.693196839716935e-05 6.803042138342469e-05 -0.09321753498349622 0.21045523117513285
1850000000.0 -0.8959535954874344 -0.2967515115770399 -7.783226181305065e-05 -9.471974576727648e-06 -1.5711058306388164e-06 -2.2405717972880957e-05 -0.0824701664074054 0.2232450143710074
1900000000.0 -0.9118292468753377 -0.22165193941793548 -6.962605563249739e-05 -0.00011638760506886419 -6.18387480465768e-05 -1.0323602302199383e-05 -0.06684355049911184 0.23389887849548643
1950000000.0 -0.9301107775649935 -0.15280292239689772 1.2257439407391842e-05 -3.806919384796601e-05 5.9214411004576834e-06 4.211054854236234e-07 -0.05253780708185783 0.24608438887845327
2000000000.0 -0.9328160243181557 -0.08263629504525997 -9.340659886331871e-05 -7.152031605202788e-06 -8.369996946340521e-05 -5.1794598570403566e-06 -0.03578496769125024 0.253873664153665
2050000000.0 -0.9373589660635823 -0.014603039425477565 6.7802615095447e-05 4.8661160925600225e-05 0.00019560085439329682 0.00014515087573019626 -0.018194341016147395 0.26381778948290596
2100000000.0 -0.9358496529307335 0.058507086173955385 -5.343359017061292e-05 -4.3733153746516955e-06 -3.353323447627788e-05 3.0199532082359465e-05 -0.0011633552047860091 0.26905112019538246
2150000000.0 -0.9258089654393152 0.12388657724929925 -1.681111676911642e-05 5.311721894619949e-05 -2.802392522557511e-05 -0.00010238908817188915 0.018869357583233437 0.27608421496122393
2200000000.0 -0.9149379934476813 0.1955990319922128 -2.09294753105924e-05 -2.0014429237407155e-05 3.483147989917719e-06 6.317833911848966e-05 0.036854776742390405 0.2798447121467269
2250000000.0 -0.8946689950935858 0.26576467352373145 -6.117509933164428e-05 -1.7789784216853072e-05 0.00011800810530129897 -9.264534237873136e-05 0.058537167194186224 0.2824913193312554
2300000000.0 -0.8734529287441953 0.3296836327387131 -2.5933027842996477e-05 -5.8238525661342844e-05 2.131585941025214e-05 6.175799151460349e-05 0.07779448209823457 0.2840113183105311
2350000000.0 -0.8426861667557903 0.39398082066093704 -6.892415131839195e-05 7.649818524720807e-05 4.1138189907964406e-05 2.6020840364684475e-06 0.09953849357841743 0.28260743070920485
2400000000.0 -0.8133270465457737 0.4558081685517704 -6.078466532003893e-05 -1.7449486752337714e-05 8.406304621006823e-05 0.00010078103716625531 0.1192910083749437 0.2814459909382699
2450000000.0 -0.7729005418800413 0.5151043124958791 5.2614555076137135e-05 4.196651932948828e-05 2.1112607543177154e-05 0.0001408296690638389 0.14115179841888595 0.2763651909455833
2500000000.0 -0.7343770468120683 0.5680734248061585 -5.0505788054019723e-05 5.36027539285518e-06 0.0001778869903356066 6.288651735551237e-05 0.16185117314005407 0.27227378368454264
2550000000.0 -0.6886156426251814 0.6205594957039385 4.065143976927678e-05 2.0417190557629302e-05 -7.242062037801333e-05 3.3684243269467746e-05 0.18154762831224003 0.2630909536438073
2600000000.0 -0.6417752153904029 0.6674878879418651 1.628229517925215e-05 -3.5810241745715105e-05 8.551021354338915e-05 7.987317054577561e-05 0.2025577249459305 0.2555282073746513
2650000000.0 -0.5905629456423138 0.7142727204124665 -8.967509025205981e-05 3.535542334183845e-05 -7.655167549966378e-05 -9.226640655254e-05 0.22072191777091527 0.24397375661277063
2700000000.0 -0.5358646997843021 0.7528035670788674 -5.816261984488244e-05 -0.000125704800322108 7.274073352689444e-05 -7.557700134877077e-06 0.24107761729640392 0.23186870668549855
2750000000.0 -0.48161770599185966 0.7895776928845136 0.00013984523451330148 0.00014931021277893888 9.791935108683042e-05 3.683026955627517e-05 0.2576291349279881 0.21912464303028964
2800000000.0 -0.42214740462090616 0.8193998698409007 0.00015950876458052033 1.296369172057336e-06 7.006039058367981e-05 -7.1285363405953885e-06 0.2754543929269505 0.20259878852144136
2850000000.0 -0.36344261548202056 0.8495044054344268 0.00015273065422226575 -0.00010384584634753297 0.00016468107623932656 -0.00014502975206240863 0.2902918676100995 0.18697993446915367
2900000000.0 -0.2992805043754002 0.8709467876782189 0.0001511741313023112 -1.4833904191258637e-06 2.071471478882807e-05 -5.6953340037894816e-05 0.3054236777715153 0.1680887732067315
2950000000.0 -0.23747008990853555 0.8916692051798637 3.32241757550889e-05 8.594246949065281e-06 5.034311606730048e-05 -8.959256583287843e-05 0.31725457893909675 0.15035393213059045
3000000000.0 -0.17097329461119956 0.9053309238291342 -0.00010471354933033479 -0.00015068829719014614 5.809455651505736e-05 -2.9918494331738267e-05 0.3285691647049403 0.12831229423279433
3050000000.0 -0.107671513676474 0.912760180949265 -6.669583485999061e-05 -8.100839831878764e-06 2.6344966896421134e-05 4.3073116396915936e-05 0.33858269414814207 0.10882921072969634
3100000000.0 -0.04259765676784563 0.9170746536411664 0.00015218116630008407 1.7218714229781194e-05 0.0001319058468938309 -6.289718409675797e-05 0.34461547162768474 0.08633340260748919
3150000000.0 0.021856788300616922 0.915301999593224 7.710165379282475e-05 -6.758325811808681e-05 0.00018051105323244081 -0.00012631101369263068 0.3514132734553654 0.06564999145398967
3200000000.0 0.08593831018555566 0.9131562360069809 3.2787833075188135e-05 -2.6571706398168343e-05 -1.237996215323036e-05 -6.533007082144448e-06 0.35345472015402163 0.044221604054638444
3250000000.0 0.14945676467528643 0.9011598442243769 8.579052728249733e-05 -0.00015339425856403393 -9.497606194337298e-06 -3.6352252655124565e-05 0.3571819665057618 0.02327375894370181
3300000000.0 0.21137756794408993 0.8916874962261576 2.362958544189666e-05 0.00010685820023916076 -6.612505301398944e-06 0.0001915632803440479 0.3572342257262243 0.003294655260612744
3350000000.0 0.2720757519989783 0.8694327298268222 0.0002795386924918773 0.00010498683672812983 0.00011417908712449912 -4.685202639440434e-05 0.3571177492779047 -0.018018906743450133
3400000000.0 0.33064986516704364 0.8533923193246533 0.0001021075032985544 -4.6839343532568044e-05 0.00019055340751553642 8.518299995248546e-05 0.3561337312655691 -0.03607208125705465
3450000000.0 0.387014809761632 0.8224188590539444 0.0002124251930223167 1.3910289819436871e-05 0.00012849978917150087 0.0002360908620264606 0.353324278898626 -0.056128872266284914
3500000000.0 0.4454961666953291 0.7986645860561373 0.00018160281566768905 -2.2075828350046848e-05 0.0002714854632682821 -6.618831403227985e-05 0.3519582968692048 -0.07319225053767524
3550000000.0 0.49401194710974405 0.7610626556520994 0.00018179275159972306 -0.00012112428564234623 0.00018527590906505738 -0.00016789909185789263 0.3490807300475466 -0.0917958973680518
3600000000.0 0.549276973170086 0.7274772509624104 0.00010849191206882617 -4.233357003456673e-05 0.00012482028710949044 -0.00021403896005122266 0.34758636167343454 -0.10959579480266872
3650000000.0 0.59435818209298 0.6864145136979456 0.000152338054631535 -6.880820140510422e-05 0.0001417827537622801 1.0905914131337964e-05 0.343449444160579 -0.12959670368785062
3700000000.0 0.6410548017259429 0.6432036864840474 0.00014301081218810876 -7.57983178409479e-05 0.00011374839627716275 -0.00012404211890700942 0.3402322499187417 -0.1495694504902332
3750000000.0 0.6802363013790875 0.6004568121025209 0.0002244177312966546 -0.00020551124659035612 0.00027657511840802686 -3.6130859165386874e-05 0.33346219545662276 -0.16935944068461356
3800000000.0 0.719591329397434 0.5486582333459465 0.00027357667155955925 -0.00021961985913393535 0.0001702776056166278 -0.0002272483743949586 0.3269183166834843 -0.19113016338769803
3850000000.0 0.7535750982147218 0.5037995223850059 0.00020567597556221277 -0.0002866395197696168 0.00014572408201501613 -0.0002501425786532358 0.3180094165749017 -0.21039297424743536
3900000000.0 0.7825420419243391 0.4462904592284271 0.00012366179423249743 -0.0003182257311904206 -3.136608836651998e-05 -0.00024842878957109907 0.30667210830734015 -0.23251081286431008
3950000000.0 0.813669353428029 0.39758485116354375 0.00017538552990690909 -0.0004688062053069454 0.00025684827621290867 -0.00034734635525257335 0.29585781952498935 -0.25163547350261256
4000000000.0 0.8335293930937328 0.33823582869293206 0.00021776017482295657 -0.000455186486429444 0.00021142182054063944 -0.00036842634855939184 0.2809633942247769 -0.27118857575093097
4050000000.0 0.8574529046415019 0.28517955022949604 0.00012009559628570099 -0.000558230117217737 0.0002507895132582017 -0.000498129644813061 0.2659598991720556 -0.2892767824287361
4100000000.0 0.8692935110484353 0.22489260164222527 6.286709211021207e-05 -0.0005848309160470492 -0.00013420908902871294 -0.00045259694713246977 0.2476429175558109 -0.30664592586228806
4150000000.0 0.8851088676995503 0.16721434958068623 -0.00011937828926107913 -0.0006154896490346982 -8.107648633187995e-05 -0.0005834374591761301 0.23008577368516958 -0.32261288213313855
4200000000.0 0.8898054766545762 0.10777816955879413 -0.00023764814344652189 -0.0005957628451676687 -0.00010319679964796737 -0.000708596292116952 0.209515260544755 -0.3370797460711861
4250000000.0 0.8970286409634299 0.04794175218672637 -0.00027809753356995367 -0.0006123997039509603 -0.00030429514920189465 -0.0006849280474533971 0.1888221039495563 -0.3513578142054343
4300000000.0 0.8951744298600762 -0.010329895798012172 -0.0005125009688943213 -0.000650871588373785 -0.00026924716519237624 -0.0007444357075347035 0.16695112922535654 -0.36196475953560703
4350000000.0 0.8920032904816964 -0.07247491159780378 -0.0004731940925741243 -0.0007439842609206169 -0.0005474262092635161 -0.0007903789310449411 0.1439061313045462 -0.37346312984177177
4400000000.0 0.8861402148056561 -0.1274583585874704 -0.0006285153554107595 -0.0006399438870910614 -0.0006587347659502644 -0.0006301942406814204 0.12128244848363492 -0.38104836918603613
4450000000.0 0.8712046923437073 -0.18953414094362045 -0.0006970825106393723 -0.0005384134645505843 -0.0009039997871882195 -0.00045396527464139716 0.09553668723852425 -0.3882574988360184
4500000000.0 0.8585814188053331 -0.24135917146837746 -0.0008960952198199231 -0.00048448391010865447 -0.0009461273031899229 -0.0004975237576684839 0.07266882999899259 -0.39378192698093073
4550000000.0 0.8360811713915759 -0.3009968133749559 -0.0009172826872477145 -0.0003871071927495843 -0.000993252490766536 -0.00022807430388836116 0.046928313882288096 -0.3967601184611492
4600000000.0 0.8175329313862979 -0.3530809605094471 -0.000999680743902766 -0.0002603252714828667 -0.0010796124619530047 -0.00017431958427769676 0.02238113879746816 -0.3987107973848246
4650000000.0 0.787360473759386 -0.40780827153942745 -0.0012393861251213769 4.15389659871881e-05 -0.0011832106376571715 -2.3886257459556625e-05 -0.003228179664860669 -0.397670689972194
4700000000.0 0.7619986030832039 -0.45791485456632425 -0.0011413092467876763 0.0002299222691689929 -0.0012277930114971592 0.0001318846610397288 -0.027889639949808347 -0.3963111273426744
4750000000.0 0.7255187945202005 -0.5062952093695403 -0.0010804337831654038 0.00042264894154438783 -0.0010908392817831152 0.0003696291429363222 -0.05227852332818369 -0.3917604689849231
4800000000.0 0.6912120695893331 -0.5539539394409116 -0.0012910587668096597 0.0007512131145207561 -0.0011856287445479712 0.0006830398342789104 -0.07659841069009057 -0.3872412061176227
4850000000.0 0.6514819217029877 -0.5956053081949424 -0.0010482951806264577 0.0009085421718575901 -0.0010522646519909129 0.000783514206740487 -0.0999125154186573 -0.3793295821239472
4900000000.0 0.6100772144451817 -0.6384531776501878 -0.0009166456828642475 0.0010589952599906625 -0.0008447188356116444 0.0009954302490099958 -0.1226870722856206 -0.3716547592806626
4950000000.0 0.5663297125689125 -0.6749179403561186 -0.0007649314179370014 0.0011895166732067066 -0.0007512386056745353 0.0011336853654499227 -0.14478339840841897 -0.3608434771550912
5000000000.0 0.5178171175616424 -0.7115837489802646 -0.0004355558208309286 0.0012146523353458668 -0.000513026607922796 0.0011834572987200799 -0.16673587649099544 -0.3491659354021289
5050000000.0 0.4705267484411508 -0.7423000142302318 -0.00037724520292822437 0.0013242623368707978 -0.0004212381292820953 0.0013669724805693958 -0.18641297993515504 -0.3372528722979881
5100000000.0 0.41647299219368106 -0.7720624872605485 -6.0354738446576035e-05 0.0013535485514519338 -0.0001825256940330434 0.001276250325349027 -0.20622972463946226 -0.32259343062620616
5150000000.0 0.36652583013334084 -0.7966050888666576 4.4846661936411686e-05 0.0012904455553836966 5.063918321642378e-05 0.001348866671705776 -0.22403994509734526 -0.3083152997056106
5200000000.0 0.3094608630977495 -0.8181864475576712 0.0002128320589642425 0.0014635736952813062 0.0002597380876348851 0.0012380258891358342 -0.24124480614746538 -0.2911912362932427
5250000000.0 0.25777006103998923 -0.8361578816917153 0.0002967205710994779 0.0012841518132191622 0.00039066144379954957 0.0012832878096043906 -0.2577024657141819 -0.2753048736154981
5300000000.0 0.19758363008357996 -0.8492816080249479 0.00048800007440216514 0.0012054034451719675 0.0005163689662642731 0.0010483675195046946 -0.2710124417650041 -0.2563161258786251
5350000000.0 0.1394878097397763 -0.858798074644752 0.0006275156999033489 0.0011929884529877036 0.0007558822846378408 0.0011210334420823586 -0.28543095562715465 -0.2375928144655287
5400000000.0 0.08194187763064822 -0.8647031638076502 0.0007293074842209987 0.0010504323266030816 0.0008326589709624402 0.0009365282417904359 -0.2957667135819408 -0.21867360556396262
5450000000.0 0.02374106063315362 -0.8675200450916244 0.0008889254129613761 0.0009509380878816949 0.0009031155373249108 0.0008350231763307103 -0.3068367721959921 -0.19848328937158166
5500000000.0 -0.034829953691075874 -0.8645393185454175 0.001091703533571543 0.0007849841672625548 0.0009899618489156725 0.0009180526255506581 -0.31507701135847715 -0.17786671376658755
5550000000.0 -0.0938510659121434 -0.859932309009575 0.0010879265940426487 0.0005588867515173521 0.0010427147908419114 0.0006899477700123328 -0.32310256196192216 -0.15691926894959785
5600000000.0 -0.14982113562302904 -0.8499466572728974 0.0010914224895247125 0.0005380076056955749 0.0011154533174492075 0.0005110181437016372 -0.3287650515078278 -0.13614409187139861
5650000000.0 -0.2087590655295112 -0.8367492037944535 0.0009436266719376835 0.00037093039526429607 0.0012570378871927632 0.00048605365331085037 -0.33331801744477163 -0.11430017072697439
5700000000.0 -0.2634112494242555 -0.8175203020652115 0.0012755061412544413 0.0002114634504073833 0.001192138092543702 0.00027985953835625056 -0.33615843396194295 -0.09401557107066712
5750000000.0 -0.3188281228182022 -0.7959322201697984 0.0013065614904244748 7.230918219857135e-05 0.0013188675841135705 0.0002615633736214029 -0.3376967160536629 -0.07201506004573235
5800000000.0 -0.3709241141430566 -0.7715912984860676 0.0013006704201444649 1.6392456417885015e-07 0.0011657297932916287 1.642274571728984e-05 -0.3385067205642454 -0.05234179684455454
5850000000.0 -0.4220743994776423 -0.7436429528118961 0.0012927983284779572 -0.00015197915957653686 0.001179845682030385 -0.00011693958096428816 -0.33689696754440845 -0.031194171583701375
5900000000.0 -0.46976407632309003 -0.7122916874903427 0.0012194756926808042 -0.0002850547693600728 0.0012018862946357467 -0.00019615791160240568 -0.33558025765399124 -0.0111840253199937
5950000000.0 -0.516566816585903 -0.6771651040486913 0.0011723096942197115 -0.00045113964866813345 0.0010559137685890515 -0.0004688710223903446 -0.3307770935460228 0.00842894234997915
6000000000.0 -0.5599210018465385 -0.6383032701159008 0.0010489420021651918 -0.0004086423398631216 0.0012299393486439594 -0.0005917712928412511 -0.3260051384352685 0.028641926683227195
