! Created with skrf 2.0.0 (http://scikit-rf.org).
# Hz S RI R 50.0 
!freq ReS11 ImS11 ReS21 ImS21 ReS12 ImS12 ReS22 ImS22
100000000.0 0.008827734687122741 -0.016296562588452388 -6.252399127909797e-05 4.7922016848200704e-05 -4.633164013545551e-05 -1.0107860130670708e-05 0.9706163475800755 -0.14989378556423905
150000000.0 0.00477063724518083 -0.021420404973232682 -4.6062313167811474e-05 -3.890201337640718e-05 6.22621297405461e-06 2.298964333346185e-05 0.954045092623802 -0.2218496055129874
200000000.0 0.0015597285429666474 -0.030810304644908047 -9.99927514541313e-05 3.140704217320229e-05 -7.343866200648393e-05 5.095593027299107e-05 0.9348105353009118 -0.2936309859493174
250000000.0 -0.003979981781082407 -0.03512635600260301 5.953277295821001e-05 5.990994810271817e-05 -8.702262576616872e-06 3.3162999976883354e-05 0.9083150892641668 -0.36212047164444233
300000000.0 -0.009919794573400453 -0.043584178906514955 -3.9360423720082556e-05 0.0001305681503852751 6.12179848125136e-05 4.3665705336718695e-05 0.877794554999239 -0.42964598248668895
350000000.0 -0.015164279307125439 -0.04626696949293021 6.106793556334459e-05 0.00012972330278020555 7.103510963105217e-05 -0.00010423699474126772 0.843069702779626 -0.4932976415249016
400000000.0 -0.024551622247386284 -0.05304990465136306 6.160922073055109e-05 -6.0359417255479946e-05 2.4234329746081496e-05 -6.578183660836287e-05 0.8012138113373103 -0.5548240762798008
450000000.0 -0.03053108858464545 -0.05449767193334311 -3.668180822659056e-05 -3.566241513248914e-06 -1.6786929574980913e-05 -1.448735321256985e-06 0.757752846809721 -0.6122820672907141
500000000.0 -0.04172331586156706 -0.05737940522025095 -1.1046453354780212e-05 -9.155114651619734e-06 -5.255007439830264e-06 -1.0401242996137974e-05 0.7063993449327938 -0.6666614360006705
550000000.0 -0.04838952853919155 -0.05979471563054472 -1.1875149860736939e-05 1.652655164117334e-05 -3.947104653348925e-05 -1.713735874153134e-05 0.6555929480374011 -0.7183590607949826
600000000.0 -0.06021424279872917 -0.0590893226661541 3.0658463337393955e-05 -6.0100218918925404e-05 -3.935283382663342e-05 -6.0231167023397696e-05 0.5968774729506663 -0.7634081146513422
650000000.0 -0.06861483260086332 -0.060400692074543606 1.3843570915216503e-05 -2.5436737555410252e-05 -3.5273170130547974e-06 -8.219312429484536e-05 0.5375076666513997 -0.8079786343686065
700000000.0 -0.07946024126159351 -0.05613046032828691 2.4922597642560084e-05 4.318069532311528e-05 3.061972767506576e-05 4.194362284890335e-05 0.4732148550103112 -0.8425501336146958
750000000.0 -0.09013520946210088 -0.055738417316383036 1.1826344451987361e-05 -5.324073430362691e-05 -8.226438607251419e-05 -0.00010327281544096137 0.4076385844216178 -0.8768147661627234
800000000.0 -0.09880258474289105 -0.049158673198660824 1.3476253183906162e-05 -5.6297942213171715e-06 -6.674243680578168e-05 1.1658382788755658e-05 0.33924131984517375 -0.9024648235715137
850000000.0 -0.11112342315674152 -0.04610633009876565 5.1134164390475505e-05 2.3991440857459806e-05 6.606220430850207e-05 4.747980443864133e-05 0.2681319880430223 -0.9252624348127312
900000000.0 -0.11829202649391592 -0.037660829073849676 7.527289614917152e-05 -2.5368909815619346e-05 -6.81389781982696e-06 0.00010583716622176278 0.19656669194127507 -0.9413186749653819
950000000.0 -0.13087312675366974 -0.030604101576700925 -1.556638914598915e-05 -2.4754329448565285e-05 6.207189890555319e-05 6.875696999917658e-05 0.12252297912148719 -0.9524861020031831
1000000000.0 -0.1363761491996167 -0.022589827502536797 6.473405278704232e-06 -4.882991899581478e-05 -0.0001236155032633953 2.549195872921835e-05 0.049702848215725896 -0.9572754627651273
1050000000.0 -0.14711439906834134 -0.010671632749333361 -3.1335050660602616e-05 3.945985671208156e-05 -1.2419784719454807e-05 -7.287044313505189e-05 -0.025096655717154043 -0.9553898287711322
1100000000.0 -0.1526868282828138 -0.001916977129911389 9.571689404163377e-05 -7.780086195147204e-06 -3.254179690615036e-05 0.00012890495954588014 -0.09775539671008711 -0.949898025565313
1150000000.0 -0.16069519278210778 0.01255958701018643 5.551090760916021e-06 1.2062508326744976e-05 -0.00012553325667742432 -6.557169724914118e-05 -0.17140397050277623 -0.9356089132241416
1200000000.0 -0.1653941257987995 0.022330001129513527 -5.466651169483525e-05 7.29007973510408e-05 -4.883891206669847e-05 6.708149849886156e-05 -0.24249464568042495 -0.9191556062494609
1250000000.0 -0.16908810894149728 0.0387360779680087 -2.054979318796619e-05 4.968244039225596e-05 -0.00010898992404169807 -5.641508832313042e-05 -0.3124313749771414 -0.8934408850523125
1300000000.0 -0.1745689224882121 0.050721197129616036 1.2148293026545177e-05 -4.613364550034862e-05 -3.040537584651611e-05 -2.2112857843937816e-05 -0.3810023986912313 -0.8662976489561437
1350000000.0 -0.17344526587359155 0.06695083282321881 1.4275112249732717e-05 -3.83657599307838e-05 -6.111209252618945e-05 -3.6431532864093356e-05 -0.4460972825147403 -0.8299307665370628
1400000000.0 -0.17767376094271772 0.08189378564837624 -3.367750334684173e-05 3.881646189738198e-05 -7.197376395989607e-05 7.605047807363121e-05 -0.5093206768548418 -0.7919840343696023
1450000000.0 -0.17411724593475433 0.0958175599316602 -6.673046359315472e-05 -1.295221821155855e-06 9.144756069291302e-05 1.0344060293114718e-05 -0.568822871478072 -0.7469842915300509
1500000000.0 -0.1751363200445611 0.11418108292659042 -8.001061646802801e-05 7.901303888714567e-05 7.967535913515111e-05 3.70893012796058e-05 -0.6242189335704273 -0.6982680785012656
1550000000.0 -0.16969378762043638 0.12732760935465315 2.2423281012543427e-07 -2.1095987644063328e-05 -1.2085182576569433e-05 0.00010826387312337779 -0.6748301322384906 -0.6454671116323828
1600000000.0 -0.16635426708096585 0.14660123515988796 4.2520822611842894e-05 0.00011138440059313072 1.3421419826433332e-05 1.1865307660702303e-05 -0.7217645771138448 -0.587378675141624
1650000000.0 -0.16004562377190615 0.1589095312940647 -4.415111032518535e-06 -7.044989412691475e-05 0.00012625688989221007 -6.517115937443017e-06 -0.7638579543552542 -0.5288526301503284
1700000000.0 -0.1514405745775146 0.1777344106087437 2.865968156121823e-05 -9.791011324427321e-05 3.200865294657978e-05 0.00012993200711482224 -0.8006169309085752 -0.4638296867959862
1750000000.0 -0.14484139815890093 0.1897460631664344 -4.712609748021587e-05 1.4907050778326644e-05 1.212104893573792e-05 4.2232177095239e-05 -0.83332591160531 -0.3999180832342334
1800000000.0 -0.1313208782880376 0.20622894889493598 -2.1914004639231498e-05 -5.5198208988763546e-05 -9.236649982822693e-06 7.528263578163531e-06 -0.8592986894919109 -0.3304390915517602
1850000000.0 -0.12363338536628596 0.21998432660823686 -1.1510254971008389e-05 7.457785449817106e-06 3.812451893647437e-05 4.384231671628217e-05 -0.8807618912118113 -0.261848791486432
1900000000.0 -0.10704133886081683 0.23217197649944019 -8.743875805910164e-05 3.0027194548314554e-05 6.163729897026392e-05 6.136319793693763e-05 -0.8960609268794623 -0.18943889278650922
1950000000.0 -0.09517453537599746 0.24801871621636074 -8.01611834301765e-05 1.1415059843557869e-05 4.651064983117029e-05 -4.721115952252271e-05 -0.9058311829834754 -0.11756053999525157
2000000000.0 -0.0785245886813892 0.25575670589757415 -3.0275044020406587e-05 -2.5834682508211548e-05 0.00011989020993827512 2.34273781136864e-05 -0.909103819536449 -0.044960933574252064
2050000000.0 -0.06406404287983963 0.2695179454941731 -2.4328478198216862e-05 -3.6410523095803285e-05 1.535888574495845e-05 -0.00012008120627184053 -0.9060565620671295 0.02817846474776562
2100000000.0 -0.04712246585582622 0.27571175765691813 5.141114683325179e-06 9.085497837326413e-05 -7.244878462543968e-06 4.148994528589972e-05 -0.8980117420712039 0.09837566870954888
2150000000.0 -0.029088993254651644 0.28728055058224644 -6.023548532969775e-05 1.2349704354827525e-05 -3.8514666979765164e-05 6.08905142957415e-05 -0.8847633142164969 0.1694042520048853
2200000000.0 -0.010574378093259954 0.29079424340604804 2.5100459522352217e-05 0.00012114374111894342 5.300357218914891e-05 7.616424954271803e-05 -0.8655449834855845 0.23911337707568828
2250000000.0 0.011855034694948911 0.297625741362025 -1.1841585906171264e-05 -4.7489326159095384e-05 -7.176715362419013e-05 3.231761635801044e-05 -0.840064475020989 0.30418544618172144
2300000000.0 0.02851467657395791 0.30085702086089816 4.675870019612607e-05 -2.1042727818930683e-05 -5.34027734477713e-06 -4.2218066755784414e-05 -0.8105488199289238 0.3686612176356946
2350000000.0 0.05246887280174199 0.30371482716420906 1.1888723356539942e-05 2.068244182962258e-06 -1.8275421648844123e-05 0.00014711499631525653 -0.7757070974517748 0.4288290440826306
2400000000.0 0.07047701374159393 0.30558088424515234 -9.332529760012781e-05 -3.9578283188153624e-06 6.472425392379984e-06 8.229538232193164e-05 -0.7370424960482356 0.48589653653498566
2450000000.0 0.09407836331327812 0.30214964396015154 8.976547627626949e-05 -1.825852409180258e-05 0.00010585163696054911 0.0001436009806761349 -0.6937673266957823 0.5398909251913041
2500000000.0 0.11325491677374676 0.3032753322041969 4.668423130973047e-06 4.137630720272946e-05 0.00010897363259080525 -1.831067291801725e-05 -0.6460057960270185 0.5901510372346043
2550000000.0 0.1353952187625076 0.29514635648027837 0.00015359839760156947 -2.0043441038659398e-05 0.00011904812940903107 -4.3637625948248484e-05 -0.5958608375473199 0.6351456027000991
2600000000.0 0.15690133162716705 0.29418770502775365 1.820674598507205e-05 1.7790711603187102e-05 4.035347957755923e-05 -5.665664120198272e-06 -0.5417490316304957 0.6749954742883777
2650000000.0 0.1766518684757943 0.2834064348780969 3.33744469093066e-05 8.430024031191403e-05 7.930182814790568e-06 7.048901971788512e-05 -0.484859389892576 0.7114902098459269
2700000000.0 0.19960905997253262 0.2762050443216686 5.980280875554367e-05 3.061022283154469e-05 0.00013152395125652725 -2.2483194056286033e-05 -0.4265847016040954 0.7420448587045946
2750000000.0 0.21627567060872924 0.2650232281404295 0.00010065285565406367 -3.572143303069476e-05 0.00016293332408578306 -1.8323377342057225e-05 -0.3656890749137383 0.7682565406997675
2800000000.0 0.23810681700994774 0.25403535691083995 -1.2781575903243681e-05 -3.2049304714838185e-05 0.00011169555909188781 -6.287972378017939e-05 -0.3055924768666133 0.7864642671654057
2850000000.0 0.25350551597053383 0.24090283310845054 0.00012234077116294757 -6.044832891261018e-05 8.991636848130013e-05 5.7699380669500565e-05 -0.24336602479836278 0.8010163504728776
2900000000.0 0.27357773074576164 0.22534862357225438 0.00016209507597777178 -2.615238829128588e-05 6.116470298658362e-05 -4.315645203989555e-06 -0.18239320454844468 0.8098358586935974
2950000000.0 0.28829929296568446 0.21122093832027936 6.445887120373282e-05 -4.46572803773713e-05 3.987191614240719e-05 -0.00012224459126885333 -0.12302988284135043 0.8136109152346152
3000000000.0 0.305056565529372 0.19132678317753313 6.920040582975011e-05 7.789626042042706e-05 2.2966789672644606e-05 -7.335932262061989e-05 -0.06243238843603095 0.811586235741463
3050000000.0 0.3181147438947422 0.1770700688805895 0.000201865742594512 -2.4228830932449223e-05 0.000135338177637253 2.0185590983459748e-05 -0.006711413727371131 0.8054008726181402
3100000000.0 0.33164667531539493 0.15320667796912688 0.00024128047016187397 -0.00012012867327243508 0.00018842177140186988 -5.7065594988638345e-05 0.04660619559424033 0.7955914981023017
3150000000.0 0.3443197178292619 0.13702785781979387 0.00013765753910779835 -0.00014149841700103176 0.00016298406960101413 -7.192138177820235e-05 0.09665351305184357 0.7824066648609816
3200000000.0 0.35282083133844044 0.11181554061411464 2.8091393452435243e-05 -7.609291299437665e-05 5.009152144322652e-05 -0.0001370290976642764 0.14332239418632844 0.7680607804389191
3250000000.0 0.364701609784967 0.09117688824829592 -6.29892683608622e-05 -3.205287157750466e-05 -1.7426705514814737e-06 -0.00020417200741221176 0.18695363329046896 0.7519947495105749
3300000000.0 0.36882193106240024 0.06783353555263229 3.0423845435994683e-05 1.6486729048225565e-05 4.253298610643517e-05 2.2134827052677857e-05 0.2296348121218354 0.7368068010256785
3350000000.0 0.3767708280227813 0.04340016637280401 0.0001559200614034108 1.737552268708654e-05 0.00017477720018592796 -2.6640704095245465e-06 0.2684209195670333 0.718694343509534
3400000000.0 0.37887620866923083 0.021965298988361064 0.00021409757272825057 1.5942371807626704e-05 0.00016773763217153715 7.22565539068897e-06 0.30841058140041183 0.7048204240263147
3450000000.0 0.3828067115647807 -0.0035117573914388352 0.00016697479914810467 -6.2697435834801e-05 0.00014150487790883775 -6.747795148824546e-05 0.3453311171655808 0.6876334789633641
3500000000.0 0.3836897437562404 -0.026340203679650516 0.00021701247552886844 -3.967057708378268e-05 0.00020099788442681262 -0.00013833311404392882 0.385859222200502 0.6737682269826101
3550000000.0 0.38192504443599856 -0.05240912853606898 9.872266688389749e-05 -4.0850380665101895e-05 0.00018235010341974514 -5.856700649418289e-05 0.42711335656232724 0.6579600260308041
3600000000.0 0.3804866339022469 -0.07546559312904799 0.00015315942840502702 -0.00013349782851942646 0.00016768577080600734 -0.00010664250531647233 0.47264276386242554 0.6393347236002012
3650000000.0 0.3737055361474593 -0.10151199984778658 0.00012101895100881372 -9.866068427378234e-05 0.0003210756520811701 -0.00017793903924290263 0.518521665404833 0.6160535297417404
3700000000.0 0.37037157535435666 -0.12409585885216552 0.00010892257667222652 -0.00014082271031489932 0.0001825522815023066 -0.00022716403390152275 0.5661824240943646 0.5869073370659683
3750000000.0 0.35955536009125716 -0.1479903545697961 -3.2485928554386266e-05 -0.0002169684880372738 0.00016026183918714634 -0.0002958215816977124 0.6120141806506229 0.5547513117407079
3800000000.0 0.3523060990691739 -0.172310236144955 0.00024762243730070484 -0.00029162429383435494 0.00023088590575349907 -0.00034654235752964064 0.6555617635017301 0.5135708723457845
3850000000.0 0.33908942447169693 -0.19256679230199714 0.00022831465961436866 -0.0003029330473933872 0.0003194054180840378 -0.00023825944882401078 0.6976660566007732 0.4724495022075191
3900000000.0 0.32823198321782154 -0.21490318750254908 0.00016565006183658575 -0.00021755593146590343 2.1844827938091407e-05 -0.0002722436920069576 0.733762394334202 0.4236272011435938
3950000000.0 0.31366046586836327 -0.2346223386335528 0.00019587138693287753 -0.000371127708244097 6.699797689948283e-05 -0.0003418904815190921 0.7691704092731131 0.3728274749930923
4000000000.0 0.2971476092551213 -0.25527608337128743 5.6030618335176325e-05 -0.0003496263837934507 -1.713143007143194e-05 -0.00040215086984114935 0.7960695861104227 0.31907445436207044
4050000000.0 0.28158116688323376 -0.2722316331695062 3.871584882647769e-05 -0.00045519421006330715 9.461217550387576e-06 -0.0005391241908108845 0.821635709059334 0.2625027712587827
4100000000.0 0.2619907173115904 -0.2902058857331462 -3.064941207750339e-05 -0.000577174795332625 6.591635039799221e-05 -0.000369086063040298 0.8395916156867503 0.20389925538180842
4150000000.0 0.24450230045547292 -0.3064699258351859 -7.126973976332891e-05 -0.0005598766866410608 -2.4015822023988242e-05 -0.0005095995203077047 0.8555328728994093 0.14429690261097117
4200000000.0 0.2220052342657778 -0.32038327807500433 -0.00015801024577349526 -0.000621095856873444 -0.00010508250252598507 -0.0004946597533440772 0.864983826686153 0.08449308951837955
4250000000.0 0.20277519014964382 -0.33473243795629026 -0.00018058918521905362 -0.0006391572503214705 -0.00028863782767416294 -0.0005623564271764416 0.8701166790506479 0.022095033876319937
4300000000.0 0.17842044638858287 -0.34502619323165035 -0.0003590148319423742 -0.0006923023939570293 -0.00041725920823158373 -0.0006086368080413339 0.8713997379268198 -0.037170119123205905
4350000000.0 0.15710243509120325 -0.35672636515381845 -0.0004280326472301233 -0.0005588737871171481 -0.00045983681008089134 -0.0006016229272155326 0.8665375626250299 -0.09910459195019593
4400000000.0 0.13290789045389353 -0.36379568292068754 -0.0007034364725066431 -0.0005494167421516774 -0.0006014666700402364 -0.000534076001843309 0.8599289506241834 -0.1565651162593812
4450000000.0 0.10813232344911859 -0.37170455824550197 -0.0007398457170167919 -0.0005777241188549635 -0.0009050276058068167 -0.000573613576147494 0.8452538207339109 -0.2170465658809329
4500000000.0 0.08526302951384165 -0.3742155038235958 -0.000880430730648625 -0.0003056328140419233 -0.0008744356844994256 -0.0003887831135418359 0.8309434992539809 -0.2735475606833764
4550000000.0 0.05871334744221391 -0.37932312542152563 -0.001040660074815185 -0.00023600849958694287 -0.0010195626084623522 -0.00022360800427482786 0.8087449891402352 -0.3285271503545762
4600000000.0 0.03593768040204487 -0.38094502267948266 -0.0010075260478137412 -4.238484673322498e-05 -0.0012077013978242252 -5.416259041021272e-05 0.7858600157069908 -0.3835664732259925
4650000000.0 0.009185479569573423 -0.38018711158713386 -0.0010847250383460888 0.00015857400227228046 -0.001156320631419758 0.00011614328492558172 0.7576501686001303 -0.43410080136796764
4700000000.0 -0.01361137847049488 -0.3797629903314548 -0.0011377252186422972 0.00026801790570150366 -0.0011334528377694075 0.00020915635984418613 0.7271540528620345 -0.485079879455161
4750000000.0 -0.03940768479904331 -0.37487156002878275 -0.0011502228573559352 0.0005022316385273659 -0.001141329293639609 0.0005767217137704965 0.6930626703893124 -0.530749485740015
4800000000.0 -0.0629307152875536 -0.37140556286457865 -0.00117393361908844 0.0008455022616004905 -0.0010963149440721494 0.0008387726829675122 0.6566712970482915 -0.5762083599698936
4850000000.0 -0.08670868089071017 -0.3630796962510999 -0.0008793251945864078 0.0009151513686550877 -0.0009251308477582759 0.0008822887522508756 0.6158232956089557 -0.6185633332752367
4900000000.0 -0.10987443354893127 -0.35608006967147454 -0.0008135763505867424 0.0010330171290265525 -0.0008332878929024744 0.0010470707553932588 0.5738517440830985 -0.6592134217602211
4950000000.0 -0.13172787017761714 -0.345204519106533 -0.0005966449453654278 0.0011624696218052947 -0.0006005563754222639 0.0011846183370546521 0.5282475302921411 -0.6959105845070555
5000000000.0 -0.15379895279663908 -0.3342715518439105 -0.00048602530762716843 0.0011822398880788 -0.00045510296230088934 0.0013403430042820239 0.4794697509963097 -0.7286053185911335
5050000000.0 -0.17300373685236212 -0.3212915351884388 -0.00025845396473003974 0.0013425465128289707 -0.00020011565477105582 0.0011800663708017045 0.4316477892603565 -0.759937801915878
5100000000.0 -0.1938783525621646 -0.30661277536551285 -8.670619027677955e-05 0.001223104096527456 -0.00010836608946447463 0.0013293314583494487 0.3792821650440129 -0.7857547035349149
5150000000.0 -0.21112151630383916 -0.292724760110132 0.00024224979838483903 0.001406379549840399 0.00014307769777194122 0.001356611891209556 0.3267699324594752 -0.8098900675824209
5200000000.0 -0.22867660111630753 -0.274850168011905 0.0003170177870341722 0.0012194229500777482 0.0002690738196359045 0.0012134036659199941 0.2712275426755312 -0.829302534316044
5250000000.0 -0.2420891510625423 -0.26017880539798044 0.00040663754806514834 0.0011887749804861114 0.0004677933962801037 0.0011621263200968187 0.21609235028453874 -0.8463793558510792
5300000000.0 -0.25845429133617964 -0.23907170976826128 0.0004836135709985463 0.0011094233922767176 0.000626808890776738 0.0010281388340010582 0.15918892206959379 -0.8574664070854662
5350000000.0 -0.272175766669636 -0.22151727837497812 0.000670838079783849 0.0008757173546961629 0.0007680429570564091 0.0009537628762081031 0.10086979616417521 -0.8660058389877165
5400000000.0 -0.2828529390715823 -0.20089146045674033 0.000866319711649707 0.0009541461949809862 0.0007790464377102343 0.0008450775010372357 0.04417274504712338 -0.8699583125117074
5450000000.0 -0.2938375858312095 -0.18123512292579322 0.0008734765922954388 0.000738527413545935 0.0008346351947965396 0.0007450436017707785 -0.013546366261074309 -0.8707866290964266
5500000000.0 -0.30145495483602097 -0.1591061748102684 0.0010536391966237267 0.0007274600724752121 0.0008940205664323454 0.0006624084135663698 -0.0711863817768636 -0.8666880319197897
5550000000.0 -0.3104295668182098 -0.13912923820426415 0.001077108086446255 0.0005736058883172475 0.0010976927437253362 0.00045893084211261003 -0.12874844149545334 -0.8591244758390263
5600000000.0 -0.31374511615218453 -0.11784083334771325 0.0011364876846513283 0.0003185333081285552 0.0011109284437509058 0.00039735409031789194 -0.18439598456340217 -0.8476729460675884
5650000000.0 -0.3200174163908997 -0.09579877457449576 0.0012568099121089283 0.00014267195825164668 0.0011497851197523916 0.00040878400441249043 -0.24078783587671646 -0.8323035840714009
5700000000.0 -0.3217949862166476 -0.07487754881818345 0.0010688562136615047 0.00023351652541453435 0.0011733485646419407 0.00025692275988402493 -0.2939022166549343 -0.8138471479397955
5750000000.0 -0.3223676987063607 -0.05230326363748031 0.0010926442044023764 9.381386903810736e-05 0.0012547549358645658 7.996435004716697e-05 -0.34756843832521844 -0.7916151200372403
5800000000.0 -0.3226335342842888 -0.03321197257354422 0.0012274067678153119 -6.269131029902524e-05 0.0011187409959874741 -7.928798967158545e-05 -0.3972569812676979 -0.7668001081556933
5850000000.0 -0.3204630409230792 -0.011324959514753994 0.0011715234252434648 -0.00023625915858651992 0.0011863740023195372 -0.00013843794426292058 -0.4466137784114228 -0.7371515824687617
5900000000.0 -0.3180925856450569 0.007047256629654843 0.0012688839311560166 -0.000346231931589804 0.001107405101839145 -0.0003581300492081797 -0.49381425048251754 -0.7058083357969032
5950000000.0 -0.31287317205058823 0.02835550033202864 0.0010917995086876474 -0.0004725113817385287 0.0010625822984309471 -0.0005184414828373584 -0.538585793309924 -0.6700493409389032
6000000000.0 -0.30819863061590275 0.04669841708056655 0.0009357475885290352 -0.0006988201193538965 0.0010210355926641354 -0.000575860842046699 -0.580915452652257 -0.6303892895027077
