! Created with skrf 2.0.0 (http://scikit-rf.org).
# Hz S RI R 50.0 
!freq ReS11 ImS11 ReS21 ImS21 ReS12 ImS12 ReS22 ImS22
100000000.0 0.008699864159026703 -0.016291380541870876 -2.380643441457788e-05 2.6569382477648487e-05 4.92305616835387e-05 8.115736686867544e-05 -0.88256520919576 0.13021091316263855
150000000.0 0.0048183911329037765 -0.021443009850034004 5.25869315973824e-05 7.116118710199535e-05 -4.153620538048825e-06 5.961771186012324e-06 -0.871068928931067 0.1939984119118987
200000000.0 0.0015585292732852975 -0.030785060328525116 -0.00010304720282840023 -7.15267856665794e-06 3.985610907065858e-05 4.748645836972912e-05 -0.852184074648033 0.2530172344328478
250000000.0 -0.004076860635922061 -0.035081559152656976 -4.9290023573233166e-05 -1.099771640368177e-06 7.773988288580237e-05 -7.017168611342844e-06 -0.8312242842334564 0.3139579664123776
300000000.0 -0.0098018468302577 -0.04375749022428659 -5.7861573777496694e-05 4.5167281453208995e-06 -8.828947615057306e-06 5.046749290714433e-05 -0.8055798885588064 0.3684311880514579
350000000.0 -0.01524801632477725 -0.04632801267492808 -3.647299409585483e-05 1.924544865072275e-05 9.878444793700278e-05 -0.00018964166734836016 -0.7754374684298477 0.4238588446431035
400000000.0 -0.024477655445963517 -0.0530158600374671 -6.318481125208052e-05 5.752793203335472e-05 5.8826436617430296e-05 -3.220938428991277e-05 -0.744191590878506 0.47535341140158577
450000000.0 -0.030384048802110042 -0.054613386097131726 3.984336323065007e-05 2.0321951047157782e-06 6.206807944290743e-05 -5.198420250125521e-06 -0.706269551540769 0.5249861877146763
500000000.0 -0.04176328346567411 -0.057329083707321274 -7.90494337980344e-06 -1.42494130292519e-05 3.897498337487847e-05 -1.8989872515252015e-05 -0.669248464851791 0.5721311798252767
550000000.0 -0.048397370157090745 -0.05992350111280576 1.8247898788792645e-05 -3.4090465033568915e-06 -4.4235572568131585e-05 0.0001575921180060193 -0.6251089660396146 0.6138507012559179
600000000.0 -0.06008094615569365 -0.05895966809121129 -3.026750515965811e-07 5.198287059472175e-05 -4.0972619191018716e-05 1.5855498243905726e-06 -0.5827564887845302 0.6553707684048913
650000000.0 -0.0686003226802555 -0.06047016247171642 2.958855970688281e-05 -2.3065854084772897e-05 -6.977885813504558e-05 9.187385314714316e-06 -0.5343681593452879 0.6903074044800916
700000000.0 -0.07957558418704759 -0.056160197196325486 -8.694170553891785e-06 2.1993835780275464e-05 -3.3897275558238946e-06 -2.9162093746784058e-05 -0.48640356873652163 0.7253096789405129
750000000.0 -0.0900203177628465 -0.055838720022464955 -0.00012792812891053464 -8.678487839392144e-06 -7.644996238114842e-05 -7.877919220561501e-06 -0.4350764293390043 0.7536158701664442
800000000.0 -0.09891343704419343 -0.049056716506494645 -9.053071400533069e-05 2.100007609928712e-05 5.859727049695772e-05 5.454546363501497e-05 -0.3822155819110078 0.7815628366519813
850000000.0 -0.11107738196878056 -0.04612944465477759 -6.096075840159775e-05 8.545654066516045e-05 -0.00012325381979379248 -0.00011629999515034285 -0.3285134969121164 0.8034067810004494
900000000.0 -0.11813753462666589 -0.037704812949867696 3.19955157017361e-08 5.514253663111288e-05 4.47560019589648e-05 -8.58630934094875e-06 -0.2731172856920349 0.8225037220668288
950000000.0 -0.13097495739854936 -0.030627805779285894 2.766647346748392e-06 -3.8152299772570946e-05 -1.9686552324280822e-05 -9.636622419652302e-05 -0.21849683988685112 0.8369713840087526
1000000000.0 -0.1363717395593953 -0.022422533385628437 -4.18660112539727e-05 -7.252752263034004e-05 -1.9730642308374076e-05 0.00011091628287159927 -0.16214758727752718 0.8480207156452012
1050000000.0 -0.14710240667573704 -0.0106313256383446 -8.772711902144111e-07 5.530027263447787e-05 3.985292301634427e-05 -9.736563538673821e-06 -0.10591529910552795 0.8565677410725211
1100000000.0 -0.15263350629491695 -0.001973247669797253 -1.618849777892085e-05 2.0444440543606914e-05 1.1761590769515562e-05 2.7810839524975396e-05 -0.04875714591928858 0.859813318809301
1150000000.0 -0.16072993956831355 0.012620137565578065 5.656260839485675e-05 4.392869844626702e-05 -4.015775481929592e-05 7.733067825081645e-06 0.006718541396269818 0.861946686758816
1200000000.0 -0.1654250165746563 0.02235343490603986 -1.2582133641205313e-05 4.659562347320433e-05 6.45900535710711e-06 -9.804252730723186e-05 0.0639765138281689 0.857435795543422
1250000000.0 -0.1690668125661096 0.03874187080930854 2.5502168273818783e-05 4.050771826956371e-05 -9.844416596308444e-05 -4.106422589042148e-06 0.11911867920153602 0.8517776561635017
1300000000.0 -0.17447523897574393 0.05076264733807965 0.00010227262277785016 3.33973505925375e-05 5.8383681566078064e-05 -9.456408833436366e-06 0.17369565410457585 0.8405227357935433
1350000000.0 -0.17353964207162054 0.06687460199578679 1.5115976586695294e-06 4.614568446679541e-05 -1.6124020421806986e-05 1.3859916786713376e-05 0.22779450584595054 0.8286231669031295
1400000000.0 -0.17781967590366152 0.08179589112356105 -3.6750730758591285e-05 1.4046779420410915e-05 1.6843762457104395e-05 0.00013297601569464468 0.28015654515610217 0.8101226977497714
1450000000.0 -0.17399021528097114 0.09587415992848841 7.4126415455872e-05 -1.3133073423910387e-05 -0.00011514078675739308 -7.992283527642193e-06 0.3324841667205206 0.7894927780071939
1500000000.0 -0.1752378648195032 0.11407606196481775 3.384085682570018e-05 9.953605535103259e-05 -1.074007518520781e-05 -3.104142796647231e-05 0.382282454080354 0.766568637929626
1550000000.0 -0.1696524046434535 0.12726224636927735 8.413853195776225e-05 -4.0252875131482804e-05 -5.1346006547506494e-05 -5.314203898910524e-06 0.43018709819224077 0.7391254662632545
1600000000.0 -0.16622899178146944 0.14666786279541638 0.00010719087502285331 3.765317607499379e-05 4.587479181634917e-05 0.00012397940841833176 0.4769955132825471 0.7103966304488555
1650000000.0 -0.1599119278447616 0.15891594062066947 1.5190374435342919e-05 -8.837902362959099e-05 -5.9774762855225896e-05 -2.4871054186448063e-05 0.5203376897512875 0.6767155587882587
1700000000.0 -0.15146336920875203 0.17771207668609224 1.6081015199712078e-05 -5.0652401762079635e-05 3.527888032634233e-06 -7.958128031353053e-05 0.5619961657251581 0.6427463287469707
1750000000.0 -0.1447676494925701 0.1898776029802906 -8.892944923400273e-05 3.633141238456708e-05 7.614642929244351e-05 -4.658221620635522e-05 0.6009523559816451 0.6041120746041024
1800000000.0 -0.13124844864449692 0.20640042792605057 5.453306915923704e-05 7.803893203620074e-05 -8.757742065620917e-06 5.219725707509029e-06 0.6380866158276586 0.5652130617777591
1850000000.0 -0.12355255410641731 0.2199170332895763 7.917456518810934e-05 5.329568113187193e-05 6.439829070895447e-05 1.8924637459052338e-05 0.6713479897904362 0.5237091917531469
1900000000.0 -0.10703515366227365 0.23211045016099283 -2.909825946813559e-05 -7.332011969888506e-05 -3.7428788791695794e-05 4.838108689359565e-05 0.7028658691153414 0.47927610749436816
1950000000.0 -0.0952017953078025 0.24796150804860126 1.2774402811721888e-05 6.442435867320304e-05 -4.768657269502228e-05 2.4794713629762904e-08 0.731719164136758 0.4339961582484882
2000000000.0 -0.07853220811189819 0.25568397273187754 -1.5064303890913507e-05 7.37580088138648e-08 -8.777498747646914e-05 1.4217725121302383e-05 0.7568472067561002 0.38610156508038473
2050000000.0 -0.06406924411709233 0.26949632537774165 1.993896291111284e-05 -0.00011953041573305694 9.950859951555422e-06 7.379146789190979e-06 0.7805251719490326 0.3375913983505181
2100000000.0 -0.04703090041041916 0.2758010657796457 -3.0043263667636393e-05 5.362914625129085e-06 6.605683095713523e-05 -1.9466460762681366e-05 0.7984527170200043 0.28854311568771285
2150000000.0 -0.029011801275815777 0.2873393057458323 -9.726624971279069e-05 2.6974485139109027e-05 1.604837268949107e-05 -1.0943445051188108e-05 0.8151869984647429 0.2365461650737751
2200000000.0 -0.010710153567215079 0.2908173805761949 5.246763327396874e-05 -1.6521942465754395e-05 -2.3026496177289017e-05 9.964614607662862e-06 0.8263316612748292 0.18492603945914055
2250000000.0 0.011796393385800687 0.2976417423389466 3.229788191406184e-05 -0.00011468298486460767 8.004873189879628e-05 -7.866079268694387e-05 0.8364599601990145 0.13259838251716569
2300000000.0 0.028571392257035713 0.3008607993295889 -4.9603756874520556e-05 -1.923680713211075e-05 -1.8216933853402312e-05 -0.00010963524501813607 0.8418120479165115 0.08000173761769444
2350000000.0 0.05252209504466099 0.30363270701104805 -4.713314634225451e-05 -1.6549437536232445e-05 -5.463661906366966e-05 -2.3167748558568125e-05 0.8448635927084808 0.02668956585730016
2400000000.0 0.07043481955569572 0.3055977283850252 -1.0922243123791283e-05 -1.0145491630804762e-05 7.658526946243953e-05 -4.879151612022988e-05 0.8441645255374695 -0.02562040420464167
2450000000.0 0.09417223491359733 0.302051876746159 1.0665607737889477e-05 2.8650658435709376e-05 -9.998779161568258e-05 -2.737479768692444e-05 0.83973956559726 -0.07827483306463501
2500000000.0 0.1130770707187602 0.30326617124851085 7.064703397825434e-05 3.2352904145612754e-05 6.16694831092932e-05 0.00010408211182381485 0.8327326911862926 -0.1312643638696509
2550000000.0 0.13551449037392696 0.2952635951798776 0.0001023963033001573 -0.0001052311272650434 -0.00011285904330852304 -4.7518951387923576e-05 0.8201079456091709 -0.18352748245605285
2600000000.0 0.1568698766008872 0.29426489409348205 5.1777164155928883e-05 -5.4367193800300484e-05 -7.448449330740958e-05 -1.0527676706307968e-05 0.8077212594716998 -0.23515449977928007
2650000000.0 0.17659647850349586 0.2835075510177949 -0.00010043711627165799 3.653727905807048e-05 2.03700886813428e-06 6.700653666244371e-05 0.7888242273733324 -0.28484902656544464
2700000000.0 0.19962430898567374 0.2760883441298496 -3.386474710052612e-05 2.584954626616289e-06 7.631303174109444e-05 -2.9703377534369882e-05 0.7683185863084385 -0.33545102024046997
2750000000.0 0.2161333032597701 0.2649375561426562 5.505593818737533e-05 4.443815999106458e-05 -3.934931267670474e-05 -1.846750619199941e-05 0.7442360771626522 -0.3805518712387439
2800000000.0 0.23800246218007567 0.2541047125777911 -5.3033571231590084e-05 -6.987795727180942e-07 -1.0820223162660948e-05 -7.255020007376965e-05 0.7181632281643884 -0.42803026746864126
2850000000.0 0.2536330290334154 0.24094608855447228 8.2579122243419e-05 -8.580423792098929e-05 4.1112280708086796e-05 -7.98092165868063e-05 0.6885649411229837 -0.47025779722088074
2900000000.0 0.2734184562990565 0.2255679840324687 6.078121887732796e-05 -0.00014536093724761177 -8.164798828946455e-05 -3.70411672225462e-05 0.6564892450499139 -0.5134023474582889
2950000000.0 0.28818200413837913 0.2113512418360616 -4.431076634102054e-05 1.396830848321792e-05 -1.8514166997569933e-05 -5.183737082779273e-05 0.6218183337743303 -0.5520053414493888
3000000000.0 0.30504372888308495 0.19116643759379515 4.592629466786371e-05 7.315298191918747e-05 -1.391407157637116e-05 2.4797472251677637e-05 0.5840235033086827 -0.590597495956978
3050000000.0 0.31797761712264266 0.1771578136231278 -4.887061583181098e-06 -3.7690352505095304e-05 -5.554708853610333e-05 -4.1691130374002804e-05 0.54517234014644 -0.625928879826093
3100000000.0 0.3316442899404588 0.15314650566075888 2.5052888142316876e-05 -8.294186680272522e-05 -5.6465758552492096e-05 -5.547519315722957e-07 0.5014271909719029 -0.6580223778094247
3150000000.0 0.34440408270686373 0.1369129894214198 -0.0001042482337717212 -0.0001397327481198344 -0.00014447030671075516 2.0673796280554494e-06 0.45935171224807436 -0.6880571520037618
3200000000.0 0.35277434065436697 0.11179156417573222 -6.27060845771177e-05 -4.9667636977678025e-05 3.520312944697301e-05 -3.256920564870906e-05 0.41148402648967414 -0.7140847718420235
3250000000.0 0.36472775597012086 0.0910524543030409 -4.252651095248355e-05 7.601820331145327e-05 4.126444163205956e-05 -7.069047721208605e-06 0.36552467719345866 -0.7389782826197303
3300000000.0 0.3688417619987603 0.0680280025039717 -0.00012591752928629006 -2.8180819933498648e-05 -0.00010589491471245255 -3.061618238405221e-05 0.31472493373580845 -0.7582398667468272
3350000000.0 0.3766372494114641 0.04334952428888608 -5.5907481261363394e-05 4.77687936045905e-05 1.5052914521413095e-05 0.00014911732086115933 0.264729944234932 -0.7780941752132827
3400000000.0 0.3787631165454214 0.021911885875705663 1.6348412621519736e-05 3.381062559800542e-05 -8.969322430140314e-05 9.435723392618359e-05 0.21294291278737343 -0.7910687906075298
3450000000.0 0.382531591055365 -0.0035315534120805127 -5.104128872467042e-05 -9.51943054561278e-06 0.00018870291299973713 5.1797970208818727e-05 0.15952193869994394 -0.8032650467812733
3500000000.0 0.38361072266254537 -0.026263119157389755 0.0001760837440587726 5.5339662555725365e-05 -0.00011980189277496379 8.617195527408634e-05 0.1069101359180788 -0.8096465150344052
3550000000.0 0.38200599359605286 -0.05227540330242684 -1.6690523238731034e-05 2.0752795076212052e-05 -4.6948491855596465e-05 -6.213621137381063e-05 0.05228798410363042 -0.8143009456262346
3600000000.0 0.3803458967227559 -0.07539084147717966 3.5455250250886698e-06 4.8377033009298116e-05 -2.1340452913215123e-05 3.791341618413135e-05 -0.0013613470945242285 -0.8137356213200655
3650000000.0 0.37376308770170197 -0.10131702553029474 -7.01820871865672e-05 8.301936228722209e-05 -2.451473939674277e-05 0.00014945541032623455 -0.05666933576018997 -0.8100588765548896
3700000000.0 0.370143529561474 -0.12411977005487002 -1.3656576976276743e-05 0.00010600246623498209 5.115050125126741e-06 7.204644397035776e-05 -0.11018745519658994 -0.803016747645513
3750000000.0 0.35962815180019564 -0.14802957266635833 -1.472885596088555e-05 8.447410869115028e-05 6.473442706061726e-05 0.00010751667008133569 -0.16549794705851156 -0.7900203767561101
3800000000.0 0.3524548860780874 -0.1722204897972588 8.621974175842226e-05 8.547501357757672e-05 1.1669047563662354e-05 -2.7521458773813192e-05 -0.2172737477341047 -0.7771041765883095
3850000000.0 0.3392097250997422 -0.19274071591336592 0.00011258238504640932 4.844045474428952e-05 7.233799428735867e-05 0.00013307773138763394 -0.2690004804213278 -0.7559961026973436
3900000000.0 0.3282696373081627 -0.21478331694972005 0.00016448953415053303 0.00012034142472295531 0.00010378147179450173 0.00011001671460498739 -0.32031658519041506 -0.7358038325537594
3950000000.0 0.31367955830275696 -0.23453872838982465 0.00022579685537702337 2.4167980641732915e-05 0.00020243460784985886 2.7606033289688144e-05 -0.36789555678621105 -0.7081690557646654
4000000000.0 0.29725115238917577 -0.2549917602475114 0.00011364187720199007 0.00014290609832906797 0.00016689867971963188 4.867547948141724e-05 -0.41469594196384907 -0.6810044372652889
4050000000.0 0.28169296013684475 -0.27176847431973844 8.50947874228333e-05 6.48736756918505e-06 0.0001680093471661601 4.950623629466537e-05 -0.45867572714047716 -0.6470575268251298
4100000000.0 0.2621071770717649 -0.290325425549804 0.00015749198535277252 -3.1788348426603556e-05 0.00013034560692241936 -0.0001262334014216711 -0.5019329266078318 -0.6125610149928609
4150000000.0 0.24444500462152077 -0.3063721096822764 0.00019333469224198837 -3.956486605591549e-06 0.00034706825265740874 8.718321968305732e-05 -0.5405587892899412 -0.5736496608823382
4200000000.0 0.22197082729491593 -0.3205000667989006 0.00022238246487844466 -8.063967856029351e-06 0.0002701254249609843 -0.0002139837529415798 -0.5784360300404119 -0.532169005863846
4250000000.0 0.20278984833437264 -0.33453783202863346 0.00028074503112920717 -0.00021136321355370107 0.0002662606265548772 -8.345126144887438e-05 -0.6122278783924843 -0.4885520841176947
4300000000.0 0.17830407527050143 -0.34500386946486994 0.0003319955041961189 -0.00022053517275043475 0.0003031748015793056 -0.00013654588663864427 -0.6430271979472125 -0.4410764572018015
4350000000.0 0.1569601086066422 -0.3566073795981434 0.0003629270235440794 -0.0002962090642478918 0.0003659574016924161 -0.00020694052660926818 -0.6703831317833739 -0.3943638775459698
4400000000.0 0.13299843712863346 -0.3637775500991477 0.00043956408752988637 -0.0003107371444757145 0.0002523303705343397 -0.0003614192449209575 -0.693690776883878 -0.3429825492821521
4450000000.0 0.10811882696338919 -0.37154258931162704 0.00035634255593760964 -0.00040811091223851703 0.00020628837998664756 -0.0002560424272557715 -0.714286740869232 -0.29244232442541535
4500000000.0 0.08526445788411617 -0.3743545172103983 0.00021944127163484967 -0.0006064189454320944 0.00030931313276493194 -0.00040708822423261577 -0.7295868211774864 -0.23842086599095902
4550000000.0 0.05876527246817329 -0.37922150982234826 5.549241777975982e-05 -0.00040862701716216866 8.101699203775171e-05 -0.0005368950177087181 -0.742587392133037 -0.18687875837645868
4600000000.0 0.035917976283304905 -0.38091772347940045 8.040701524603529e-05 -0.0007328976113056268 9.021630456658878e-05 -0.0006597866916326354 -0.7505681150703082 -0.13094701866524472
4650000000.0 0.009259768380619834 -0.3802391598313451 -0.00013254510860472116 -0.0008286350772721652 3.645373328254646e-05 -0.0008366840565176984 -0.7560851651868405 -0.07573398890807395
4700000000.0 -0.013637296676164652 -0.3798184882109558 -1.4639378525165856e-05 -0.0006718335482110329 -0.00019004064757910028 -0.0007817169178666515 -0.7558613184709574 -0.020862006524706336
4750000000.0 -0.03956983503479112 -0.37487943030994436 -0.00032216008837703414 -0.0008235739541404268 -0.00024277631113287206 -0.0009155815315789417 -0.7531928345952661 0.03456403792617546
4800000000.0 -0.06292736284333197 -0.3716398696451455 -0.00045725679627589024 -0.000731286086914752 -0.00037136121571462635 -0.0006906651709009176 -0.7454487518044939 0.08926061846371997
4850000000.0 -0.08668401903278766 -0.36315761683387143 -0.0006586087543955181 -0.0007296562781034745 -0.0006050569929366891 -0.0008118348637294911 -0.7342593636019773 0.1429647858177194
4900000000.0 -0.10954934860374162 -0.3562133352889776 -0.0006244393760702227 -0.0007193455476166052 -0.0008052255096676742 -0.0006228357142956495 -0.7178131836360757 0.19573279041054936
4950000000.0 -0.13174219071605497 -0.3448936284680032 -0.0007982705125300204 -0.00046074442385763906 -0.0007099485314073802 -0.0006053619624476845 -0.6978450654102593 0.24926637167960317
5000000000.0 -0.15389881371662187 -0.3343610805882574 -0.0010553786310678966 -0.00045764156627653034 -0.0008452862585101729 -0.00041356599106197 -0.6757887612933566 0.29903688796924327
5050000000.0 -0.17313740141499542 -0.3211622057068165 -0.000994842171754645 -0.000267717233654735 -0.0010185924257717885 -0.00036036540713409133 -0.647994366719389 0.3478180381690677
5100000000.0 -0.19379612996388565 -0.3067381129545908 -0.0011349874735252208 -0.00020118703179375504 -0.0010821627496040399 -8.251006704462912e-05 -0.6189398287578314 0.3932668061302821
5150000000.0 -0.21103941805613174 -0.2925174272511968 -0.0011414077068580327 -5.024350434421801e-05 -0.001023389093131905 9.805121213410181e-06 -0.5836324148579393 0.4372358112226846
5200000000.0 -0.228828023475991 -0.2751874197374887 -0.0010646205450707698 0.0001825383291307842 -0.0009938183183908203 7.127058041831279e-05 -0.5473738169540818 0.4786769442550664
5250000000.0 -0.24198018466126003 -0.2600030205826593 -0.0010641169049000867 0.00034177851452020383 -0.0010221503129834145 0.0002531494011057176 -0.506249118135165 0.5169537461591583
5300000000.0 -0.25848710250514634 -0.23905028467303416 -0.0010916377421017378 0.0003888687598265398 -0.0010034324000189464 0.0003359873762262777 -0.4623331186880074 0.5525336043632905
5350000000.0 -0.2722787010914071 -0.22146662348968155 -0.0011145012457533573 0.0006625298413553113 -0.0011154732935775573 0.0006272074484372864 -0.41717908582595 0.583978148273598
5400000000.0 -0.2829828101900469 -0.2006808275306075 -0.0009129225734471717 0.0008550216892199085 -0.0009845331953632272 0.0005429272600236613 -0.36860560102295714 0.6110568970351127
5450000000.0 -0.2938536047322627 -0.18129210608408447 -0.0008690691502952347 0.0009016141311692337 -0.0009355316073462469 0.0009501857296841205 -0.31862169911420246 0.6345339612674308
5500000000.0 -0.3014721680418802 -0.1592865163780693 -0.0008265155891908346 0.001014762308105603 -0.0008805696805826974 0.0008522547486969717 -0.26604628736635816 0.6544213670033348
5550000000.0 -0.31003723466258054 -0.13948921583034335 -0.0007245789471356384 0.0010280786300058179 -0.0006758259014249419 0.0011302293620889428 -0.21285231750415265 0.6694513107690057
5600000000.0 -0.31383449903447724 -0.11757877782389571 -0.00045201555164671626 0.0012544609847118715 -0.0006739486951385428 0.0011398636579785877 -0.15845384427939596 0.6804439208346001
5650000000.0 -0.32007796480202194 -0.09587312899526466 -0.0004464167120124942 0.0011577683986406123 -0.00043899963816384753 0.0012498352198855138 -0.10460283961234185 0.6876344042310762
5700000000.0 -0.3217956302479786 -0.07509463444657874 -0.0002765394827462254 0.001355521162267877 -0.0004047806179490477 0.0014827686922567764 -0.04879270209767726 0.6890780370834115
5750000000.0 -0.322529492385753 -0.052253213896834017 -0.00028272055055503307 0.0014281945709178282 -6.571621008963168e-05 0.0015330871548902435 0.0062563358414926265 0.6875329706634468
5800000000.0 -0.32258483448095904 -0.03316447785974288 -4.5274933948931986e-05 0.0015049868618331901 5.814841400247319e-05 0.0015267505313806254 0.06119604012976671 0.680240232576688
5850000000.0 -0.3204589036626888 -0.011486089630387513 0.0003424567437360722 0.0015127917277493433 0.00028907551505580445 0.0014665395787893693 0.11449132783857166 0.6685334124482606
5900000000.0 -0.31789717784335836 0.007102332469824999 0.00047183848328757194 0.0014754097762478512 0.0002932546981319879 0.0015315625664077046 0.165973130693692 0.6511508692262493
5950000000.0 -0.31290933699045875 0.028435658477813586 0.0007004579093417145 0.0014380281937836639 0.0006571163660020105 0.0014017787296002518 0.21635250470312622 0.6299917359178869
6000000000.0 -0.3083830331687752 0.04685652721978108 0.0008183170883351047 0.0013185390391889616 0.0009398425327513549 0.0012734976675487506 0.2619700642420231 0.6074520363117262
